$molecule
0 1
--
0 1
C       -2.506933   -1.757415   -1.760691
C       -1.851446   -0.602256   -1.008554
C       -2.629222    0.000352    0.185559
C       -4.009470    0.537254   -0.263951
C       -4.008758    1.628171   -1.332619
C       -2.903418   -1.076554    1.263744
C       -1.688347   -1.783863    1.861012
C       -1.746626    1.139358    0.752677
C       -2.296383    1.915648    1.946977
H       -2.703317   -2.621586   -1.102764
H       -1.843575   -2.106763   -2.570810
H       -3.464641   -1.463000   -2.223689
H       -1.626186    0.207926   -1.725986
H       -0.866017   -0.937015   -0.643707
H       -4.546105    0.911617    0.626724
H       -4.614845   -0.314025   -0.624873
H       -3.474429    2.534453   -0.999026
H       -5.043031    1.927771   -1.574374
H       -3.538261    1.287844   -2.271268
H       -3.580234   -1.837125    0.833800
H       -3.481663   -0.611331    2.082459
H       -2.008426   -2.513579    2.624640
H       -0.995222   -1.078011    2.350305
H       -1.115392   -2.339413    1.098256
H       -1.527089    1.851101   -0.063850
H       -0.764744    0.716696    1.026702
H       -2.470605    1.264104    2.820696
H       -3.247831    2.423236    1.711577
H       -1.578155    2.693904    2.257731
--
0 1
C        2.506974   -1.757019    1.761075
C        1.851453   -0.602051    1.008673
C        2.629221    0.000323   -0.185562
C        4.009458    0.537340    0.263841
C        4.008727    1.628458    1.332304
C        2.903437   -1.076803   -1.263523
C        1.688379   -1.784237   -1.860668
C        1.746606    1.139197   -0.752916
C        2.296346    1.915248   -1.947380
H        2.703381   -2.621338    1.103349
H        1.843626   -2.106199    2.571274
H        3.464673   -1.462471    2.224006
H        1.626155    0.208280    1.725924
H        0.866040   -0.936930    0.643894
H        4.546081    0.911548   -0.626907
H        4.614854   -0.313857    0.624920
H        3.474368    2.534661    0.998546
H        5.042995    1.928134    1.573989
H        3.538252    1.288295    2.271023
H        3.580247   -1.837284   -0.833412
H        3.481695   -0.611746   -2.082324
H        0.995267   -1.078487   -2.350129
H        1.115403   -2.339621   -1.097807
H        2.008474   -2.514118   -2.624131
H        1.527062    1.851107    0.063462
H        0.764730    0.716462   -1.026849
H        1.578100    2.693423   -2.258297
H        2.470582    1.263525   -2.820962
H        3.247782    2.422908   -1.712086
$end

$rem
   JOBTYPE           eda       
   EDA2              2         
   METHOD            wB97x-D   
   BASIS             def2-SV(P)
   SCF_CONVERGENCE   8         
   THRESH            14        
   SYMMETRY          false     
   DISP_FREE_X       wB97X-D   
   DISP_FREE_C       none      
   EDA_BSSE          true      
$end