%nprocshared=4
%mem=8000mb
%chk=14.chk
%nprocshared=4
%mem=8000mb
#T wB97XD/def2svpp opt=tight freq int(grid=ultrafine) scf=(verytight,qc) Volume=tight

Dimer

0 1
 C         -3.8026116466       -2.0897128776        0.1327593217
 C         -4.0803401375       -0.7919844671       -0.6180073568
 C         -3.4100980529        0.4463595172        0.0062092930
 C         -3.7096922295        1.6735357414       -0.8662858220
 C         -3.8913228047        0.6960974391        1.4344091787
 C         -1.9013417723        0.2410393442       -0.0014568517
 O         -1.4099365918        0.0024210243       -1.1901948622
 O         -1.2156239869        0.3061382445        1.0034580383
 H         -2.7324399381       -2.2614424312        0.2260040445
 H         -4.2353853494       -2.9283929733       -0.4080702355
 H         -4.2362378628       -2.0702218286        1.1289757006
 H         -5.1578600440       -0.6178262505       -0.6543438706
 H         -3.7204837485       -0.8916171575       -1.6437139893
 H         -3.2193205036        2.5572823211       -0.4631188393
 H         -4.7816956961        1.8544515586       -0.8902321436
 H         -3.3576220136        1.5132324136       -1.8821551837
 H         -4.9766640800        0.7514972836        1.4577472834
 H         -3.4839540624        1.6323545056        1.8079587426
 H         -3.5597765706       -0.0965211749        2.0985348032
 H         -0.4104514843       -0.1232755371       -1.1736522852
 C          3.8041111173        2.0870751180       -0.1645704639
 C          4.0792799609        0.8004652019        0.6060083105
 C          3.4097821348       -0.4467155393       -0.0014758021
 C          3.8895302416       -0.7139774631       -1.4269810585
 C          3.7120392433       -1.6620481213        0.8863965050
 C          1.9010271947       -0.2411777541        0.0054847617
 O          1.4098696803        0.0009120699        1.1936123135
 O          1.2151663631       -0.3083171537       -0.9992103380
 H          2.7342825384        2.2564716520       -0.2656834306
 H          4.2427210787        2.0536443382       -1.1582324909
 H          4.2335174561        2.9338059786        0.3663067010
 H          3.7170286802        0.9151922921        1.6293190164
 H          5.1566166287        0.6263075816        0.6475236566
 H          4.9750239948       -0.7658980153       -1.4514222082
 H          3.5540056947        0.0684544595       -2.1010945167
 H          3.4849101162       -1.6566586860       -1.7871755761
 H          4.7841983212       -1.8420401416        0.9103401564
 H          3.2213097624       -2.5513328190        0.4960466637
 H          3.3620871001       -1.4886160895        1.9008190352
 H          0.4101876648        0.1252667328        1.1771377964


