%chk=monomer.chk
%nprocshared=4
%mem=8000mb
#T wB97XD/def2svpp opt=tight freq int(grid=ultrafine) scf=(verytight,qc) Volume=tight

Monomer

0 1
 C          0.5269863713        0.8804031191       -1.2529706201
 C          0.4427792630        0.0049858318       -0.0000014532
 C          1.6094584158       -0.9850668118        0.0025971622
 C          0.5263581337        0.8862428107        1.2488971731
 C         -0.8768023813       -0.8073549060        0.0015075684
 N         -2.1184270373       -0.0607360905        0.0001179365
 H          1.4833515814        1.3977661688       -1.2879228606
 H         -0.2593884552        1.6332515830       -1.2609209704
 H          0.4325663461        0.2728547965       -2.1508951324
 H          1.5724379313       -1.6227671747       -0.8778844268
 H          1.5716198804       -1.6191141920        0.8856797618
 H          2.5593849357       -0.4547086037        0.0019388667
 H         -0.2599860060        1.6391619983        1.2528925430
 H          1.4827239809        1.4037353033        1.2819156710
 H          0.4314477336        0.2828951295        2.1496015067
 H         -0.8902585033       -1.4508503271        0.8864289976
 H         -0.8902218928       -1.4542384368       -0.8809423133
 H         -2.1770709969        0.5304330524       -0.8215118874
 H         -2.1770571985        0.5333758839        0.8196258064



