#T wB97XD/def2svpp opt=tight freq int(grid=ultrafine) scf=(verytight,qc)

Comment gs min

0 1
C          0.94492        0.07498        0.07283
C          2.48228        0.07854        0.05457
C          2.97462        1.50998       -0.21617
C          3.00031       -0.38187        1.42763
C          3.01884       -0.88304       -1.02710
O          2.60008       -0.50981       -2.33445
H          0.55896        0.71941        0.87133
H          0.55553       -0.93478        0.24393
H          0.52602        0.44160       -0.87079
H          2.60877        2.20430        0.54909
H          2.62773        1.87882       -1.18814
H          4.06904        1.55779       -0.21161
H          2.64334        0.27724        2.22692
H          4.09523       -0.37959        1.45848
H          2.66130       -1.39816        1.65698
H          2.68892       -1.91203       -0.84370
H          4.11430       -0.88647       -1.02646
H          1.64454       -0.67825       -2.39766
