$molecule
0 1
--
0 1
N       -1.612252    0.302367   -1.186207 
C       -2.221771   -0.552157   -0.149186 
C       -3.738783   -0.639954   -0.398628 
O       -4.301523    0.639264   -0.522540 
C       -1.565435   -1.937253   -0.190603 
O       -0.186532   -1.908770    0.029365 
C       -1.976720    0.088044    1.233451 
O       -2.292829    1.458830    1.260698 
H       -2.282549    1.050235   -1.389713 
H       -1.506738   -0.224843   -2.055276 
H       -4.217154   -1.224470    0.415091 
H       -3.939224   -1.169819   -1.347788 
H       -3.960651    1.190077    0.207438 
H       -1.803645   -2.411654   -1.168665 
H       -2.013501   -2.576307    0.589980 
H        0.274949   -1.249844   -0.565208 
H       -0.931367   -0.084576    1.529297 
H       -2.618026   -0.418031    1.976392 
H       -1.492419    1.952585    0.996218 
--
0 1
N        1.612345   -0.302405   -1.186076 
C        2.221782    0.552152   -0.149034 
C        3.738812    0.639945   -0.398361 
O        4.301565   -0.639276   -0.522194 
C        1.565447    1.937246   -0.190543 
O        0.186527    1.908770    0.029321 
C        1.976626   -0.088008    1.233604 
O        2.292735   -1.458793    1.260916 
H        2.282657   -1.050279   -1.389504 
H        1.506901    0.224778   -2.055170 
H        4.217120    1.224485    0.415378 
H        3.939326    1.169783   -1.347521 
H        3.960638   -1.190069    0.207774 
H        1.803731    2.411617   -1.168601 
H        2.013454    2.576324    0.590055 
H       -0.274910    1.249827   -0.565267 
H        0.931251    0.084618    1.529366 
H        2.617875    0.418091    1.976579 
H        1.492346   -1.952558    0.996392 
$end

$rem
   JOBTYPE           eda                 
   EDA2              2                   
   METHOD            wB97X-D             
   BASIS             def2-SV(P)          
   SCF_CONVERGENCE   8                   
   THRESH            14                  
   SYMMETRY          false               
   DISP_FREE_X       wB97X-D             
   DISP_FREE_C       none                
   EDA_BSSE          true                
$end
