%chk=5.chk
%nprocshared=4
%mem=8000mb
#T wB97XD/def2svpp opt=tight freq int(grid=ultrafine) scf=(verytight,qc) Volume=tight

Dimer

0 1
C        0.310306    1.424178    0.095498
C        0.000005    0.000016   -0.370742
C        1.078230   -0.980827    0.095379
C       -1.388537   -0.443364    0.095373
H       -0.447121    2.140549   -0.269007
H        1.296966    1.760614   -0.269265
H        0.322854    1.481058    1.200036
H        0.000012    0.000075   -1.477386
H        1.121402   -1.020071    1.199912
H        2.077291   -0.683154   -0.269328
H        0.876123   -2.003531   -0.269276
H       -2.173178    0.243014   -0.269272
H       -1.444120   -0.461174    1.199907
H       -1.630255   -1.457403   -0.269370



