$molecule
0 1
--
0 1
C       -1.102182   -1.591784    1.964798
C       -1.601252   -0.393594    1.156983
C       -2.621905   -0.693256    0.026705
C       -1.869624   -1.360799   -1.139640
C       -3.676046   -1.692387    0.537221
C       -3.313099    0.653112   -0.451346
C       -2.283895    1.784080   -0.637370
C       -4.033571    0.464736   -1.799858
C       -4.359761    1.136341    0.570081
H       -1.900484   -2.033690    2.584433
H       -0.294517   -1.275980    2.647835
H       -0.694513   -2.393016    1.324481
H       -0.728610    0.111155    0.708647
H       -2.035834    0.331278    1.868085
H       -1.264660   -2.209621   -0.778106
H       -1.179601   -0.661750   -1.643130
H       -2.562657   -1.760763   -1.898436
H       -3.226734   -2.689881    0.680019
H       -4.505506   -1.813232   -0.180194
H       -4.107521   -1.383584    1.504590
H       -1.446664    1.484927   -1.290519
H       -1.860758    2.124865    0.322061
H       -2.769468    2.657514   -1.107897
H       -4.726835   -0.394005   -1.789566
H       -3.322968    0.318992   -2.630509
H       -4.630194    1.364204   -2.034390
H       -3.947708    1.206686    1.591641
H       -5.239920    0.472663    0.604180
H       -4.719425    2.142902    0.291743
--
0 1
C        1.348458    2.077458    1.677872
C        2.116324    0.799298    1.340385
C        2.731163    0.710047   -0.082629
C        1.707496    1.208999   -1.117880
C        3.954414    1.642982   -0.145669
C        3.149060   -0.788344   -0.397115
C        1.914083   -1.654555   -0.707736
C        4.089050   -0.864984   -1.614801
C        3.885450   -1.432362    0.792950
H        1.960202    2.985601    1.537529
H        1.030498    2.056554    2.734576
H        0.438180    2.187715    1.065361
H        1.432769   -0.053211    1.496244
H        2.926054    0.675837    2.080623
H        1.551295    2.296784   -1.021740
H        0.726014    0.722665   -0.991465
H        2.047234    1.022042   -2.150804
H        3.690657    2.652369    0.213780
H        4.328627    1.757973   -1.176596
H        4.787354    1.278576    0.480299
H        1.455974   -1.391113   -1.675636
H        1.134830   -1.564442    0.067792
H        2.203748   -2.719183   -0.761680
H        5.082861   -0.439155   -1.397095
H        3.678861   -0.340367   -2.494980
H        4.241255   -1.920033   -1.904240
H        3.215554   -1.608706    1.650729
H        4.732268   -0.816570    1.142523
H        4.295358   -2.412933    0.492100
$end

$rem
   JOBTYPE           eda       
   EDA2              2         
   METHOD            wB97x-D   
   BASIS             def2-SV(P)
   SCF_CONVERGENCE   8         
   THRESH            14        
   SYMMETRY          false     
   DISP_FREE_X       wB97X-D   
   DISP_FREE_C       none      
   EDA_BSSE          true      
$end