$molecule
0 1
--
0 1
N        3.702519   -0.181744   -0.852887
C        2.328614   -0.081804   -0.387271
C        1.937787   -1.199710    0.594240
O        0.557209   -1.354029    0.805284
C        2.133421    1.313689    0.217773
O        0.880000    1.491787    0.815057
H        3.856574   -1.039113   -1.381691
H        4.354415   -0.183910   -0.066830
H        1.670302   -0.173422   -1.272081
H        2.462280   -1.032682    1.559244
H        2.297564   -2.162469    0.190476
H        0.140210   -0.526451    1.145116
H        2.337821    2.070278   -0.564947
H        2.889615    1.457206    1.012981
H        0.196739    1.491978    0.107769
--
0 1
N       -1.709578    0.108803    1.490709
C       -2.626910    0.105595    0.356454
C       -2.330044    1.283375   -0.578227
O       -1.036306    1.242530   -1.131828
C       -2.526868   -1.233375   -0.393208
O       -1.312778   -1.401640   -1.082505
H       -2.006006   -0.550930    2.209436
H       -1.623141    1.029946    1.919134
H       -3.687999    0.219487    0.671253
H       -2.419022    2.236810   -0.027945
H       -3.096341    1.296843   -1.378966
H       -0.912470    0.316999   -1.442670
H       -3.334305   -1.280049   -1.144087
H       -2.696699   -2.065821    0.320199
H       -0.581120   -1.549923   -0.427776
$end

$rem
   JOBTYPE           eda       
   EDA2              2         
   METHOD            wB97x-D   
   BASIS             def2-SV(P)
   SCF_CONVERGENCE   8         
   THRESH            14        
   SYMMETRY          false     
   DISP_FREE_X       wB97X-D   
   DISP_FREE_C       none      
   EDA_BSSE          true      
$end