%chk=45.chk
%nprocshared=4
%mem=8000mb
#T wB97XD/def2svpp opt=tight freq int(grid=ultrafine) scf=(verytight,qc)

Comment gs min

0 1
O          2.73545        1.49383       -0.17034
C          2.42195        0.11476        0.05582
C          2.99798       -0.45384        1.35226
N          2.48791        0.33424        2.49429
O          3.17533        1.26479        2.94196
O          1.32553        0.10477        2.87234
N          2.57731       -1.86708        1.54228
O          2.79009       -2.43078        2.62614
O          2.03535       -2.43700        0.57830
N          4.47885       -0.49243        1.37103
O          5.06722       -0.78082        2.42395
O          5.07427       -0.30208        0.29638
H          2.46073        1.72651       -1.07912
H          2.77599       -0.44107       -0.82215
H          1.32619        0.04850        0.05250


