$molecule
0 1
--
0 1
O        2.356731   -2.374427    1.226018
C        1.782517   -1.114510    1.285710
C        2.450225   -0.115589    0.309123
C        3.981748   -0.157320    0.360856
O        4.586348    0.572510   -0.650307
N        2.028067   -0.406541   -1.116714
O        1.663888    0.509406   -1.807067
O        2.141566   -1.559960   -1.458226
N        1.927074    1.273484    0.613104
O        0.736520    1.384011    0.777844
O        2.730208    2.173839    0.690661
H        2.163732   -2.755005    0.354214
H        1.943615   -0.725020    2.304221
H        0.696412   -1.118665    1.093312
H        4.268302   -1.211044    0.239213
H        4.282429    0.156414    1.379365
H        4.420435    1.513511   -0.487259
--
0 1
O       -2.356738    2.374424   -1.226020
C       -1.782527    1.114506   -1.285718
C       -2.450227    0.115588   -0.309124
C       -3.981751    0.157320   -0.360845
O       -4.586343   -0.572508    0.650324
N       -1.927078   -1.273487   -0.613103
O       -0.736526   -1.384015   -0.777855
O       -2.730213   -2.173842   -0.690650
N       -2.028058    0.406545    1.116709
O       -2.141559    1.559965    1.458218
O       -1.663871   -0.509400    1.807061
H       -2.163730    2.755002   -0.354218
H       -0.696420    1.118660   -1.093329
H       -1.943634    0.725015   -2.304227
H       -4.282439   -0.156417   -1.379351
H       -4.268302    1.211044   -0.239202
H       -4.420434   -1.513509    0.487276
$end

$rem
   JOBTYPE           eda       
   EDA2              2         
   METHOD            wB97x-D   
   BASIS             def2-SV(P)
   SCF_CONVERGENCE   8         
   THRESH            14        
   SYMMETRY          false     
   DISP_FREE_X       wB97X-D   
   DISP_FREE_C       none      
   EDA_BSSE          true      
$end