$molecule
0 1
--
0 1
C       -2.560100   -2.272210    0.240128
C       -2.333111   -0.905005    0.882582
C       -2.742010    0.330368    0.046938
C       -4.267189    0.498455    0.079540
C       -2.108391    1.593110    0.671314
O       -0.698663    1.635605    0.570384
C       -2.321530    0.220464   -1.435902
O       -0.931264    0.255438   -1.666062
H       -1.877215   -2.445416   -0.608908
H       -3.596609   -2.399604   -0.118883
H       -2.364742   -3.071666    0.974635
H       -1.275671   -0.819538    1.174197
H       -2.891665   -0.854744    1.835726
H       -4.778047   -0.390144   -0.329953
H       -4.592704    1.372362   -0.512835
H       -4.623770    0.640851    1.114894
H       -2.358655    1.643752    1.745058
H       -2.540176    2.493113    0.187123
H       -0.495876    1.374034   -0.354697
H       -2.733407    1.088276   -1.980640
H       -2.772800   -0.683280   -1.888186
H       -0.468407   -0.569041   -1.385191
--
0 1
C        2.560110    2.272209   -0.240136
C        2.333116    0.905003   -0.882586
C        2.742009   -0.330369   -0.046937
C        4.267188   -0.498462   -0.079538
C        2.321528   -0.220460    1.435902
O        0.931262   -0.255434    1.666063
C        2.108386   -1.593111   -0.671310
O        0.698658   -1.635602   -0.570380
H        3.596619    2.399600    0.118876
H        1.877224    2.445421    0.608898
H        2.364756    3.071663   -0.974647
H        2.891670    0.854736   -1.835729
H        1.275675    0.819539   -1.174201
H        4.778048    0.390136    0.329953
H        4.623769   -0.640862   -1.114891
H        4.592699   -1.372369    0.512840
H        2.772799    0.683286    1.888183
H        2.733405   -1.088270    1.980643
H        0.468404    0.569045    1.385192
H        2.540169   -2.493114   -0.187116
H        2.358650   -1.643757   -1.745054
H        0.495872   -1.374026    0.354700
$end

$rem
   JOBTYPE           eda       
   EDA2              2         
   METHOD            wB97x-D   
   BASIS             def2-SV(P)
   SCF_CONVERGENCE   8         
   THRESH            14        
   SYMMETRY          false     
   DISP_FREE_X       wB97X-D   
   DISP_FREE_C       none      
   EDA_BSSE          true      
$end