%chk=16.chk
%nprocshared=4
%mem=8000mb
#T wB97XD/def2svpp opt=tight freq int(grid=ultrafine) scf=(verytight,qc) Volume=tight

Dimer

0 1
 C         -2.5943796503       -0.2856132709        0.1761300303
 C         -1.2357282794       -0.4574678222        0.8476732667
 C          0.0000361241       -0.3331172900       -0.0691332819
 C          0.0001375265       -1.4842622612       -1.0812747724
 C         -0.0000421089        0.9900891487       -0.8548318198
 C         -0.0002066519        2.2590442362       -0.0090327014
 C          1.2357845677       -0.4573025702        0.8477171309
 C          2.5944074360       -0.2853967484        0.1761385417
 H         -3.3824085577       -0.4364090129        0.9115820350
 H         -2.7386382354       -1.0104102225       -0.6205190575
 H         -2.7098444331        0.7126418023       -0.2372012576
 H         -1.2052246923       -1.4449564048        1.3157105320
 H         -1.1525842271        0.2776669843        1.6509048606
 H         -0.8768626454       -1.4363623693       -1.7213175362
 H          0.0009924448       -2.4443144467       -0.5694532220
 H          0.8763737538       -1.4353072831       -1.7222836459
 H         -0.8755049132        1.0025088449       -1.5068944775
 H          0.8754945322        1.0026970078       -1.5067888175
 H         -0.8822120185        2.3122883118        0.6235577941
 H         -0.0001264537        3.1318235801       -0.6595739839
 H          0.8815809670        2.3123247660        0.6238463725
 H          1.2053245805       -1.4447560516        1.3158314642
 H          1.1526195257        0.2778796465        1.6509013437
 H          2.7385500859       -1.0100952735       -0.6206062250
 H          3.3824863625       -0.4363051024        0.9115127455
 H          2.7098771047        0.7129122196       -0.2370698039


