%nprocshared=4
%mem=8000mb
%chk=20.chk
%mem=8000mb
#T wB97XD/def2svpp opt=tight freq int(grid=ultrafine) scf=(verytight,qc)

comment

1 2
C       -0.577829   -0.870231    1.670744
C       -0.167603   -0.017902    0.461251
C        0.244866   -0.897420   -0.728413
Cl        1.632751   -1.979322   -0.369420
C       -1.330057    0.888919    0.018994
Cl       -2.805731   -0.006797   -0.478556
C        0.991744    0.882821    0.917501
Cl        1.600685    2.005312   -0.349521
H       -1.414692   -1.536457    1.405882
H       -0.905291   -0.229247    2.507901
H        0.262924   -1.493402    2.015035
H        0.548287   -0.275498   -1.583128
H       -0.591192   -1.542354   -1.031550
H       -1.038217    1.515244   -0.835462
H       -1.629506    1.546650    0.849359
H        1.847582    0.263319    1.220583
H        0.682391    1.508339    1.768362


