$molecule
0 1
--
0 1
O       -0.883000    0.966068   -1.335798 
C       -2.085599    0.238200   -1.417202 
C       -2.626231   -0.206267   -0.040512 
C       -2.853594    1.010604    0.884793 
O       -1.716654    1.836618    1.026598 
C       -3.957356   -0.932393   -0.242246 
F       -4.888993   -0.101579   -0.819807 
C       -1.644088   -1.178701    0.610774 
F       -2.144297   -1.642266    1.809798 
H       -1.007492    1.607434   -0.602813 
H       -1.889515   -0.648282   -2.046669 
H       -2.869252    0.833667   -1.922177 
H       -3.207923    0.656163    1.870408 
H       -3.641780    1.646410    0.453663 
H       -1.017510    1.399819    1.549724 
H       -4.357589   -1.280723    0.724258 
H       -3.820021   -1.806818   -0.905261 
H       -0.688187   -0.672037    0.815930 
H       -1.460777   -2.050953   -0.044062 
--
0 1
O        1.716637    1.836546   -1.026727 
C        2.853580    1.010543   -0.884879 
C        2.626234   -0.206259    0.040520 
C        2.085608    0.238310    1.417179 
O        0.882987    0.966137    1.335725 
C        1.644096   -1.178753   -0.610683 
F        2.144315   -1.642432   -1.809658 
C        3.957367   -0.932357    0.242301 
F        4.888990   -0.101498    0.819821 
H        1.017484    1.399705   -1.549807 
H        3.641773    1.646381   -0.453810 
H        3.207891    0.656029   -1.870474 
H        2.869250    0.833843    1.922093 
H        1.889556   -0.648122    2.046726 
H        1.007467    1.607460    0.602701 
H        0.688196   -0.672109   -0.815896 
H        1.460777   -2.050943    0.044234 
H        4.357611   -1.280735   -0.724181 
H        3.820041   -1.806747    0.905364 
$end

$rem
   JOBTYPE           eda                 
   EDA2              2                   
   METHOD            wB97X-D             
   BASIS             def2-SV(P)          
   SCF_CONVERGENCE   8                   
   THRESH            14                  
   SYMMETRY          false               
   DISP_FREE_X       wB97X-D             
   DISP_FREE_C       none                
   EDA_BSSE          true                
$end
