$molecule
0 1
--
0 1
C       -2.287219    1.462463    0.852352
C       -2.224254    0.247621   -0.075363
C       -3.530357    0.082615   -0.844235
O       -1.199410    0.443204   -1.051678
C       -1.942042   -1.044802    0.721905
O       -0.646762   -1.101962    1.277587
H       -3.127799    1.370322    1.560789
H       -2.429662    2.381606    0.259080
H       -1.359802    1.572887    1.439754
H       -4.366164   -0.154462   -0.163553
H       -3.438188   -0.730252   -1.584643
H       -3.769644    1.012038   -1.386733
H       -0.449079    0.916309   -0.629130
H       -2.102394   -1.914326    0.055263
H       -2.667096   -1.125625    1.550140
H       -0.055039   -1.505464    0.606798
--
0 1
C        3.215120    1.332733   -0.353150
C        2.203792    0.259801    0.033887
C        2.746446   -0.617378    1.164006
O        1.034870    0.946947    0.481346
C        1.862952   -0.585381   -1.213214
O        0.756963   -1.444084   -1.037099
H        3.501749    1.920211    0.534620
H        2.774817    2.023804   -1.091974
H        4.124496    0.884061   -0.788732
H        2.039838   -1.421972    1.431125
H        2.923353   -0.003885    2.063571
H        3.698892   -1.090243    0.870287
H        0.509174    0.340504    1.045074
H        2.735037   -1.207627   -1.479440
H        1.671632    0.099381   -2.061583
H       -0.046032   -0.946148   -1.309100
$end

$rem
   JOBTYPE           eda       
   EDA2              2         
   METHOD            wB97x-D   
   BASIS             def2-SV(P)
   SCF_CONVERGENCE   8         
   THRESH            14        
   SYMMETRY          false     
   DISP_FREE_X       wB97X-D   
   DISP_FREE_C       none      
   EDA_BSSE          true      
$end