$molecule
0 1
--
0 1
O       -1.024163   -1.337408   -0.795860
C       -2.233794   -1.291887   -0.059556
C       -2.329600   -0.035787    0.803910
C       -2.276976    1.251184   -0.023742
O       -1.122730    1.325017   -0.835278
H       -0.914158   -0.434605   -1.173646
H       -2.266482   -2.199449    0.564876
H       -3.096524   -1.336905   -0.754556
H       -1.507822   -0.037078    1.543930
H       -3.273386   -0.058942    1.378537
H       -2.345007    2.133441    0.641329
H       -3.143665    1.288870   -0.706847
H       -0.336985    1.467032   -0.250068
--
0 1
O        1.122736   -1.325017    0.835284
C        2.276981   -1.251183    0.023746
C        2.329601    0.035786   -0.803910
C        2.233790    1.291888    0.059553
O        1.024156    1.337406    0.795852
H        0.336992   -1.467031    0.250076
H        2.345013   -2.133442   -0.641323
H        3.143671   -1.288867    0.706850
H        1.507823    0.037072   -1.543930
H        3.273388    0.058943   -1.378536
H        2.266475    2.199449   -0.564882
H        3.096516    1.336912    0.754555
H        0.914158    0.434607    1.173650
$end

$rem
   JOBTYPE           eda       
   EDA2              2         
   METHOD            wB97x-D   
   BASIS             def2-SV(P)
   SCF_CONVERGENCE   8         
   THRESH            14        
   SYMMETRY          false     
   DISP_FREE_X       wB97X-D   
   DISP_FREE_C       none      
   EDA_BSSE          true      
$end