%nprocshared=4
%mem=8000mb
%chk=monomer.chk
%nprocshared=4
%mem=8000mb
#T wB97XD/def2svpp opt=tight freq int(grid=ultrafine) scf=(verytight,qc) Volume=tight

Monomer

0 1
 C         -2.2504585079        0.9354889456       -0.0085475520
 C         -0.8205630957        0.8187699871       -0.5229884492
 C         -0.0256083275       -0.3899951232        0.0003479530
 C         -0.0440972156       -0.4467134886        1.5318799363
 C         -0.5767707017       -1.7008207022       -0.5632517800
 C          1.4324279529       -0.2419358754       -0.4885607757
 O          2.0740825850        0.9259288577       -0.0413552115
 H         -2.8312734227        0.0500145214       -0.2541492124
 H         -2.7339677320        1.7929257962       -0.4716059123
 H         -2.2734503691        1.0789137800        1.0684108544
 H         -0.2715319501        1.7247767789       -0.2558470918
 H         -0.8418220833        0.7634103796       -1.6139139547
 H          0.6845998311       -1.1715564188        1.8928439999
 H         -1.0235451620       -0.7526623442        1.8891020684
 H          0.1836064126        0.5261606722        1.9643214428
 H         -0.5608802581       -1.6874475692       -1.6506361339
 H         -1.5998673722       -1.8615775126       -0.2347491736
 H          0.0236769971       -2.5419989039       -0.2227265311
 H          1.4494662501       -0.1796347113       -1.5793852339
 H          2.0071666677       -1.1311793229       -0.1877686970
 H          2.0946954956        0.9089005760        0.9217736903


