#T wB97XD/def2svpp opt=tight freq int(grid=ultrafine) scf=(verytight,qc)

Comment gs min

0 1
O          0.88025        0.12488        0.11139
C          2.30732        0.07927        0.01197
C          2.84233       -1.34761       -0.16348
Br         2.35898       -2.41810        1.41962
C          2.37706       -2.06088       -1.43734
O          0.95791       -2.14661       -1.59352
N          4.36293       -1.32972       -0.17660
O          4.93485       -0.24068       -0.01167
O          4.95425       -2.40025       -0.37779
H          0.61959        1.06325        0.14553
H          2.70201        0.55253        0.91914
H          2.59276        0.70289       -0.84363
H          2.76093       -3.08503       -1.50026
H          2.75107       -1.52879       -2.31973
H          0.56323       -2.35260       -0.72530
