$molecule
0 1
--
0 1
O        2.956915   -2.228307   -0.534687
C        3.635781   -0.985512   -0.502024
C        2.710997    0.158799   -0.044306
C        2.297129   -0.072908    1.434892
O        1.807411   -1.372130    1.664526
C        3.458258    1.506777   -0.155327
O        2.779087    2.571103    0.431310
C        1.447322    0.230015   -0.903330
O        1.049848   -0.851196   -1.528110
O        0.806594    1.266651   -0.995127
H        2.577159   -2.339576    0.370734
H        4.016007   -0.801383   -1.521189
H        4.507466   -1.038663    0.176529
H        1.565761    0.692342    1.741520
H        3.202776    0.060668    2.052449
H        0.826671   -1.372138    1.570690
H        3.688577    1.699729   -1.225049
H        4.422948    1.411490    0.372548
H        1.907264    2.615003    0.003143
H        1.664709   -1.616988   -1.301275
--
0 1
O       -2.956936    2.228309    0.534651
C       -3.635790    0.985506    0.502009
C       -2.710998   -0.158802    0.044307
C       -3.458248   -1.506786    0.155344
O       -2.779066   -2.571116   -0.431271
C       -2.297133    0.072891   -1.434894
O       -1.807401    1.372105   -1.664539
C       -1.447322   -0.229997    0.903333
O       -1.049862    0.851226    1.528102
O       -0.806583   -1.266623    0.995142
H       -2.577175    2.339568   -0.370768
H       -4.507477    1.038639   -0.176544
H       -4.016014    0.801391    1.521177
H       -4.422935   -1.411514   -0.372539
H       -3.688574   -1.699721    1.225067
H       -1.907244   -2.615002   -0.003100
H       -3.202786   -0.060672   -2.052444
H       -1.565779   -0.692372   -1.741523
H       -0.826661    1.372113   -1.570683
H       -1.664731    1.617007    1.301254
$end

$rem
   JOBTYPE           eda                 
   EDA2              2                   
   METHOD            wB97X-D             
   BASIS             def2-SV(P)          
   SCF_CONVERGENCE   8                   
   THRESH            14                  
   SYMMETRY          false               
   DISP_FREE_X       wB97X-D             
   DISP_FREE_C       none                
   EDA_BSSE          true                
$end
