$molecule
0 1
--
0 1
C       -1.838804    0.007886    1.689158
C       -2.393894    0.003055    0.295466
N       -1.975880   -1.235636   -0.491697
O       -2.153059   -2.275681    0.077836
O       -1.534041   -1.063316   -1.598004
N       -3.924131    0.024579    0.273716
O       -4.437612    0.716529    1.111826
O       -4.462193   -0.623354   -0.582171
N       -1.937599    1.216148   -0.508475
O       -2.768256    1.797579   -1.148402
O       -0.763102    1.474883   -0.426842
H       -2.176944    0.916335    2.208127
H       -0.740853   -0.013694    1.642214
H       -2.204920   -0.882764    2.220506
--
0 1
C        1.838899   -0.007815   -1.689194
C        2.393919   -0.003041   -0.295474
N        1.975831    1.235604    0.491724
O        1.533894    1.063219    1.597982
O        2.153049    2.275683   -0.077734
N        1.937605   -1.216184    0.508384
O        0.763118   -1.474940    0.426673
O        2.768241   -1.797631    1.148324
N        3.924153   -0.024531   -0.273640
O        4.437697   -0.716395   -1.111783
O        4.462151    0.623342    0.582333
H        2.204995    0.882889   -2.220465
H        0.740945    0.013722   -1.642290
H        2.177105   -0.916216   -2.208203
$end

$rem
   JOBTYPE           eda                 
   EDA2              2                   
   METHOD            wB97X-D             
   BASIS             def2-SV(P)          
   SCF_CONVERGENCE   8                   
   THRESH            14                  
   SYMMETRY          false               
   DISP_FREE_X       wB97X-D             
   DISP_FREE_C       none                
   EDA_BSSE          true                
$end
