$molecule
0 1
--
0 1
C       -2.881824    1.327886   -0.765903 
C       -2.587448    0.144629    0.159929 
C       -1.839198    0.616838    1.409145 
C       -3.887555   -0.563516    0.554386 
S       -1.587408   -1.122027   -0.750099 
H       -3.514911    2.070364   -0.244641 
H       -3.409558    0.997757   -1.676309 
H       -1.948754    1.832611   -1.071456 
H       -2.455112    1.348655    1.965150 
H       -0.888440    1.109389    1.141978 
H       -1.614039   -0.228084    2.081515 
H       -4.540910    0.136486    1.105772 
H       -3.688236   -1.431209    1.207140 
H       -4.436961   -0.917322   -0.335154 
H       -0.541372   -0.306583   -1.040964 
--
0 1
C        3.971836    0.278752    0.536390 
C        2.563037   -0.185634    0.158910 
C        2.622799   -1.337578   -0.846836 
C        1.782174   -0.611516    1.406854 
S        1.617334    1.240140   -0.558133 
H        4.534126   -0.554903    0.996609 
H        3.935477    1.113234    1.256287 
H        4.534571    0.615701   -0.351973 
H        3.173567   -2.189984   -0.407991 
H        3.146901   -1.038744   -1.771734 
H        1.612336   -1.686673   -1.116151 
H        2.315685   -1.439070    1.907765 
H        0.770572   -0.965365    1.143394 
H        1.689529    0.219552    2.127846 
H        2.383787    1.405218   -1.662624 
$end

$rem
   JOBTYPE           eda                 
   EDA2              2                   
   METHOD            wB97X-D             
   BASIS             def2-SV(P)          
   SCF_CONVERGENCE   8                   
   THRESH            14                  
   SYMMETRY          false               
   DISP_FREE_X       wB97X-D             
   DISP_FREE_C       none                
   EDA_BSSE          true                
$end
