%nprocshared=4
%mem=8000mb
%chk=dimer.chk
%nprocshared=4
%mem=8000mb
#T wB97XD/def2svpp opt=tight freq int(grid=ultrafine) scf=(verytight,qc) Volume=tight

Dimer

0 1
 C          2.4265264257       -0.6751505536       -1.7042939809
 C          2.3787712701       -0.4494931208       -0.2104381953
 C          2.0017002323       -1.6675858115        0.5976552117
 Cl         3.9603486917        0.2112638307        0.3769059135
 N          1.4547529308        0.6901134358        0.0823637619
 O          1.4744391978        1.6331968818       -0.6628224869
 O          0.7544930076        0.6116096983        1.0645137875
 H          1.4427919407       -0.9933504212       -2.0450480899
 H          3.1566470464       -1.4435222403       -1.9399332409
 H          2.6948328862        0.2438309591       -2.2193601907
 H          1.9476766786       -1.4297345640        1.6570101697
 H          2.7429140091       -2.4469739760        0.4477792926
 H          1.0316150713       -2.0405463697        0.2766857771
 C         -2.0047349402        1.6687570080       -0.5958631004
 C         -2.3789398254        0.4490715202        0.2111119225
 C         -2.4240176438        0.6724785074        1.7054063844
 Cl        -3.9611167385       -0.2124527435       -0.3740400137
 N         -1.4542257751       -0.6889537675       -0.0849439285
 O         -0.7541115856       -0.6074076161       -1.0669320071
 O         -1.4729566773       -1.6340166294        0.6578428700
 H         -1.9531281819        1.4327211080       -1.6557407342
 H         -1.0340871958        2.0417415723       -0.2766146739
 H         -2.7460954092        2.4473955123       -0.4428445178
 H         -1.4400118376        0.9914643615        2.0446535491
 H         -2.6901170063       -0.2476422131        2.2195855132
 H         -3.1546598830        1.4395390075        1.9436669628


