%nprocshared=4
%mem=8000mb
%chk=32.chk
%mem=8000mb
#T wB97XD/def2svpp opt=tight freq int(grid=ultrafine) scf=(verytight,qc)

comment

1 2
C        2.725834   -0.207821    0.000000
C        1.351556    0.455303   -0.000001
C        0.215180   -0.560199    0.000000
C       -1.154917    0.072394    0.000000
O       -2.130253   -0.852418   -0.000000
O       -1.388506    1.251345    0.000000
H        2.864416   -0.845568   -0.891353
H        2.864416   -0.845566    0.891355
H        3.530063    0.547002   -0.000001
H        1.247237    1.113158   -0.879755
H        1.247237    1.113159    0.879753
H        0.274436   -1.228553    0.878809
H        0.274436   -1.228554   -0.878807
H       -2.978073   -0.374550   -0.000000


