%nprocshared=4
%mem=8000mb
#T wB97XD/def2svpp opt=(calcall,tight) freq int(grid=ultrafine) scf=(verytight,qc)

dimer

0 1
C        1.802631    0.000002    0.000036 
H        1.455471    0.862746   -0.590779 
H        1.440149   -0.931142   -0.464280 
H        1.407078    0.075630    1.025518 
H        2.904344   -0.007286    0.029342 
C       -1.802893   -0.000017    0.000039 
H       -1.481926    0.909308    0.532818 
H       -1.401469   -0.886946    0.515985 
H       -1.418273    0.026782   -1.032074 
H       -2.903800   -0.049003   -0.016975 




