%nprocshared=4
%mem=8000mb
%chk=22.chk
%mem=8000mb
#T wB97XD/def2svpp opt=tight freq int(grid=ultrafine) scf=(verytight,qc)

comment

1 2
C       -0.169101    1.544584   -0.000004
C       -0.330037    0.025248   -0.000001
C       -1.076676   -0.452449    1.257542
C       -1.076717   -0.452452   -1.257518
C        1.034004   -0.649611   -0.000018
O        2.093949   -0.086754   -0.000007
H        0.388327    1.884233    0.888804
H       -1.158191    2.035437    0.000018
H        0.388287    1.884234   -0.888837
H       -1.160971   -1.553950    1.285658
H       -2.099624   -0.037035    1.270785
H       -0.563053   -0.123056    2.177759
H       -0.563118   -0.123070   -2.177753
H       -2.099661   -0.037030   -1.270735
H       -1.161020   -1.553952   -1.285622
H        0.988599   -1.773692   -0.000035


