%nprocshared=4
%mem=8000mb
%chk=monomer.chk
%nprocshared=4
%mem=8000mb
#T wB97XD/def2svpp opt=tight freq int(grid=ultrafine) scf=(verytight,qc) Volume=tight

Monomer

0 1
 C         -0.6720967640       -1.4455077627        0.1217629893
 C         -0.4901433228       -0.0006129508       -0.3388625648
 C         -1.7262594694        0.8242683339        0.0085696046
 C          0.7614635013        0.6360095442        0.2968794953
 N          2.0343120752        0.0529096000       -0.0832256197
 H         -1.5651853630       -1.8764451023       -0.3255657678
 H         -0.7760133954       -1.4860850651        1.2045034608
 H          0.1771808803       -2.0623004056       -0.1668481090
 H         -0.3597702253        0.0057791085       -1.4288478743
 H         -1.6165452735        1.8483225203       -0.3411232382
 H         -1.8754175880        0.8439863019        1.0860587043
 H         -2.6135165515        0.3967246163       -0.4532455575
 H          0.6839519873        0.5750396821        1.3861039317
 H          0.7986358867        1.6944551909        0.0214162703
 H          2.1400254709        0.0720564050       -1.0925566058
 H          2.0835775876       -0.9155223365        0.2138354637


