%nprocshared=4
%mem=8000mb
#T wB97XD/def2svpp opt=tight freq int(grid=ultrafine) scf=(verytight,qc)

dimer

0 1
 N         -1.1645161925        0.7571289173       -1.6394179522
 C         -2.5356745140        0.8032553844       -1.1296283113
 C         -2.8257260005       -0.3301673903       -0.1276142865
 C         -1.8975470927       -0.2889667105        1.1025476765
 N         -1.9204225568        1.0114057995        1.7684334435
 C         -4.2855191918       -0.1873996399        0.3424291091
 O         -4.5512080903        1.0525399001        0.9335953432
 C         -2.6410466089       -1.6916809703       -0.8230870115
 O         -1.3293110941       -1.8978535787       -1.2742481485
 H         -0.5127155415        1.0058370504       -0.8958996265
 H         -1.0569504672        1.4445685449       -2.3776241244
 H         -3.2101854958        0.6754351738       -1.9830523511
 H         -2.7836728217        1.7617889129       -0.6543972388
 H         -0.8879775916       -0.5877834478        0.7932798007
 H         -2.2568265599       -1.0395301864        1.8135314998
 H         -1.3266928466        1.6636713760        1.2649482415
 H         -1.5309246934        0.9245685736        2.7007132365
 H         -4.5109810900       -1.0058389167        1.0456814031
 H         -4.9665764436       -0.2807450597       -0.5099889739
 H         -3.7827964614        1.2568181361        1.5026031231
 H         -3.3469669661       -1.7600907661       -1.6651553479
 H         -2.8654168438       -2.5052361373       -0.1262580312
 H         -1.0705304696       -1.0538815653       -1.7050052118
 N          2.9792286345        2.1848202769       -1.2723005089
 C          3.7571431747        1.2489132977       -0.4606964612
 C          2.8888100918        0.1144704524        0.1169427670
 C          2.2752957689       -0.7169417834       -1.0331301592
 N          1.6389182585       -1.9380373938       -0.5450673119
 C          3.8050480931       -0.7873490992        0.9741333968
 O          3.1137945672       -1.7546747937        1.7024928967
 C          1.8051672824        0.7107048508        1.0303407577
 O          0.8960230363        1.5502160777        0.3588332658
 H          2.7334292795        1.7592964603       -2.1601361390
 H          3.5312097643        3.0114673601       -1.4730743447
 H          4.1794385712        1.8169845132        0.3732180252
 H          4.5965449755        0.8038394972       -1.0176339228
 H          3.0932429292       -1.0065589348       -1.7010500141
 H          1.5771279337       -0.0869957117       -1.6020005069
 H          1.6026987138       -2.6328161449       -1.2812286531
 H          0.6729989295       -1.7645023892       -0.2829368075
 H          4.3441491283       -0.1755862515        1.7048242463
 H          4.5485813239       -1.2580666450        0.3103716601
 H          2.5247933882       -2.1997840363        1.0574811958
 H          2.3016594630        1.2701109194        1.8367682059
 H          1.2290208830       -0.0953657248        1.4892209592
 H          1.4403164973        2.1241712708       -0.2157686927

