$molecule
0 1
--
0 1
C        1.795614    0.000000   -0.000008 
H        1.432675    0.899839    0.522070 
H        1.414072   -0.001516   -1.033649 
H        1.432625   -0.898273    0.524724 
H        2.897568   -0.000050   -0.013096 
--
0 1
C       -1.795614   -0.000000    0.000008 
H       -1.414072    0.001522    1.033649 
H       -1.432675   -0.899842   -0.522064 
H       -1.432625    0.898270   -0.524730 
H       -2.897568    0.000049    0.013096 
$end

$rem
   JOBTYPE           eda                 
   EDA2              2                   
   METHOD            wB97X-D             
   BASIS             def2-SV(P)          
   SCF_CONVERGENCE   8                   
   THRESH            14                  
   SYMMETRY          false               
   DISP_FREE_X       wB97X-D             
   DISP_FREE_C       none                
   EDA_BSSE          true                
$end
