%nprocshared=4
%mem=8000mb
%nprocshared=4
%mem=8000mb
%chk=0.chk
%nprocshared=4
%mem=8000mb
#T wB97XD/def2svpp opt=(tight,calcall) freq int(grid=ultrafine) scf=(verytight,qc) Volume=tight

Monomer

0 1
C        1.286558   -2.271547   -0.252475
C        0.611351   -1.079246   -0.927162
C       -0.000191   -0.000193   -0.000104
C       -1.079394   -0.611339    0.927037
C       -2.272384   -1.285433    0.252590
C        1.078718    0.611229    0.927157
C        2.271580    1.285867    0.252944
C       -0.611005    1.078850   -0.927344
C       -1.285367    2.271617   -0.252756
H        2.135729   -1.963034    0.381626
H        1.681079   -2.967192   -1.012923
H        0.585136   -2.841722    0.380824
H       -0.182990   -1.454293   -1.597652
H        1.341390   -0.589870   -1.597295
H       -1.453478    0.182909    1.598277
H       -0.590395   -1.342291    1.596407
H       -2.842239   -0.583463   -0.380357
H       -2.968091   -1.679548    1.013218
H       -1.964881   -2.134802   -0.381761
H        1.453016   -0.183012    1.598210
H        0.589315    1.341880    1.596570
H        2.966618    1.680769    1.013763
H        1.963920    2.134753   -0.381915
H        2.842286    0.584046   -0.379398
H       -1.341339    0.589820   -1.597401
H        0.183594    1.453377   -1.597871
H       -1.680257    2.966880   -1.013368
H       -0.583337    2.842086    0.379576
H       -2.134274    1.963881    0.382150


