$molecule
0 1
--
0 1
C       -1.844363    2.159010    0.609016
C       -1.907553    1.156928   -0.538886
C       -2.591405   -0.191469   -0.237512
C       -4.000527    0.004579    0.331441
C       -2.655701   -1.023558   -1.521689
S       -1.655126   -1.139789    1.051915
H       -2.845738    2.535270    0.880191
H       -1.231550    3.031271    0.324246
H       -1.397918    1.702673    1.508950
H       -0.886569    0.946028   -0.905020
H       -2.445181    1.616564   -1.391255
H       -4.598639    0.625614   -0.360239
H       -3.983876    0.507230    1.313185
H       -4.512807   -0.964815    0.454766
H       -3.273346   -0.506039   -2.279452
H       -3.098417   -2.015086   -1.329354
H       -1.648326   -1.171670   -1.948499
H       -0.547592   -1.358511    0.296985
--
0 1
C        1.825613    2.158347   -0.634898
C        1.828994    1.153663    0.514413
C        2.568512   -0.177389    0.272907
C        4.038528    0.040026   -0.094844
C        2.458817   -1.040347    1.532994
S        1.698239   -1.017773   -1.138515
H        1.392428    1.729413   -1.555049
H        2.841549    2.514012   -0.876385
H        1.222176    3.040186   -0.361518
H        0.789727    0.917598    0.804302
H        2.294653    1.620858    1.402641
H        4.147148    0.595972   -1.039624
H        4.561227   -0.925543   -0.211154
H        4.549177    0.606685    0.706155
H        2.983387   -0.545329    2.370931
H        2.922379   -2.031730    1.386408
H        1.406686   -1.185727    1.828650
H        2.344148   -2.202678   -1.031912
$end

$rem
   JOBTYPE           eda       
   EDA2              2         
   METHOD            wB97x-D   
   BASIS             def2-SV(P)
   SCF_CONVERGENCE   8         
   THRESH            14        
   SYMMETRY          false     
   DISP_FREE_X       wB97X-D   
   DISP_FREE_C       none      
   EDA_BSSE          true      
$end