#T wB97XD/def2svpp opt=tight freq int(grid=ultrafine) scf=(verytight,qc)

Comment gs min

0 1
F          2.77165        1.21239        0.18607
C          2.37240       -0.05757       -0.08829
C          2.89001       -1.01281        0.98463
C          2.37728       -0.57321        2.35040
F          1.01716       -0.64810        2.35732
C          2.38148       -2.41700        0.67899
F          2.87010       -2.81457       -0.52706
C          4.41614       -1.02636        0.99250
F          4.89187        0.18810        1.37189
H          2.75219       -0.31522       -1.08243
H          1.27832       -0.05273       -0.13497
H          2.65822        0.45687        2.59377
H          2.74272       -1.22616        3.15030
H          1.28775       -2.45942        0.62298
H          2.71357       -3.14456        1.42618
H          4.83139       -1.25550        0.00564
H          4.80756       -1.76107        1.70443
