%nprocshared=8
%mem=20GB
%nprocshared=8
%mem=20GB
#T wB97XD/def2svpp freq  int(grid=ultrafine) scf=(verytight,qc)

dimer

0 1
               35           0        1.956493    0.193585    1.835627
                6           0        2.544117   -0.002633    0.000487
               35           0        4.356197   -0.691928   -0.025185
               35           0        1.373850   -1.229883   -0.932390
               35           0        2.506282    1.726406   -0.878643
               35           0       -4.353623    0.605752    0.350184
                6           0       -2.544501    0.002084    0.001897
               35           0       -1.958150   -1.143219    1.449680
               35           0       -2.512591   -0.993706   -1.662832
              35           0       -1.368392    1.533086   -0.136850






