$molecule
0 1
--
0 1
C        2.544360   -0.564880   -1.673628
C        2.463649   -0.362682   -0.174527
C        2.072954   -1.604823    0.596608
Cl        4.030252    0.281747    0.447203
N        1.456500    0.770223    0.119780
O        1.411675    1.689363   -0.657707
O        0.784831    0.672672    1.122324
H        1.560454   -0.892066   -2.047664
H        3.290252   -1.347221   -1.883624
H        2.838378    0.363911   -2.181279
H        2.050317   -1.411808    1.677638
H        2.812839   -2.392563    0.384420
H        1.076699   -1.947703    0.272671
--
0 1
C       -2.072984    1.605106   -0.595794
C       -2.463689    0.362592    0.174736
C       -2.544544    0.564099    1.673922
Cl       -4.030205   -0.281642   -0.447416
N       -1.456454   -0.770119   -0.120022
O       -0.784970   -0.672234   -1.122652
O       -1.411393   -1.689457    0.657226
H       -2.050250    1.412596   -1.676910
H       -1.076765    1.947850   -0.271602
H       -2.812910    2.392724   -0.383295
H       -1.560688    0.891140    2.048216
H       -2.838592   -0.364927    2.181125
H       -3.290474    1.346327    1.884202
$end

$rem
   JOBTYPE           eda       
   EDA2              2         
   METHOD            wB97x-D   
   BASIS             def2-SV(P)
   SCF_CONVERGENCE   8         
   THRESH            14        
   SYMMETRY          false     
   DISP_FREE_X       wB97X-D   
   DISP_FREE_C       none      
   EDA_BSSE          true      
$end