$molecule
0 1
--
0 1
C       -3.938942   -0.661421    1.260871
C       -3.436263    0.055774    0.000028
C       -3.938994   -0.661255   -1.260894
N       -3.942321    1.415634    0.000125
C       -1.900362    0.019978   -0.000028
O       -1.382508   -1.179807   -0.000014
O       -1.230903    1.045112   -0.000085
H       -3.572436   -0.157244    2.173099
H       -3.601008   -1.709145    1.285722
H       -5.040634   -0.630899    1.272164
H       -5.040687   -0.630745   -1.272128
H       -3.601047   -1.708971   -1.285908
H       -3.572540   -0.156941   -2.173066
H       -3.589806    1.920586   -0.813756
H       -3.589865    1.920450    0.814117
H       -0.372359   -1.140758   -0.000081
--
0 1
C        3.938829    0.661078    1.261110
C        3.436263   -0.055775    0.000021
C        3.939106    0.661599   -1.260653
N        3.942323   -1.415633   -0.000200
C        1.900362   -0.019979   -0.000101
O        1.382508    1.179806   -0.000042
O        1.230903   -1.045112   -0.000183
H        3.600872    1.708788    1.286231
H        5.040521    0.630573    1.272482
H        3.572263    0.156629    2.173163
H        5.040799    0.631073   -1.271811
H        3.601180    1.709328   -1.285396
H        3.572712    0.157557   -2.173000
H        3.590003   -1.920326   -0.814326
H        3.589676   -1.920709    0.813547
H        0.372357    1.140757   -0.000070
$end

$rem
   JOBTYPE           eda       
   EDA2              2         
   METHOD            wB97x-D   
   BASIS             def2-SV(P)
   SCF_CONVERGENCE   8         
   THRESH            14        
   SYMMETRY          false     
   DISP_FREE_X       wB97X-D   
   DISP_FREE_C       none      
   EDA_BSSE          true      
$end