$molecule
0 1
--
0 1
C        3.919807   -0.705995    1.259344 
C        3.428118    0.030303    0.000003 
C        3.928166    1.476719   -0.000002 
C        3.919823   -0.706009   -1.259323 
C        1.903220    0.015884   -0.000006 
O        1.381288   -1.183756   -0.000003 
O        1.231205    1.038624   -0.000017 
H        3.561270   -0.208211    2.177441 
H        5.023598   -0.705189    1.282007 
H        3.571386   -1.751316    1.272607 
H        3.573564    2.022874   -0.889400 
H        5.031959    1.489202    0.000003 
H        3.573556    2.022883    0.889386 
H        5.023614   -0.705205   -1.281972 
H        3.561298   -0.208234   -2.177430 
H        3.571401   -1.751330   -1.272580 
H        0.371734   -1.139597   -0.000008 
--
0 1
C       -3.928164   -1.476721    0.000002 
C       -3.428117   -0.030304    0.000003 
C       -3.919821    0.706003   -1.259328 
C       -3.919810    0.705999    1.259340 
C       -1.903220   -0.015883   -0.000004 
O       -1.381289    1.183758   -0.000000 
O       -1.231203   -1.038622   -0.000013 
H       -3.573556   -2.022880    0.889394 
H       -3.573559   -2.022879   -0.889392 
H       -5.031957   -1.489205    0.000005 
H       -3.561296    0.208223   -2.177432 
H       -3.571398    1.751324   -1.272589 
H       -5.023612    0.705199   -1.281977 
H       -5.023601    0.705190    1.282002 
H       -3.571392    1.751321    1.272599 
H       -3.561273    0.208220    2.177439 
H       -0.371735    1.139599   -0.000007 
$end

$rem
   JOBTYPE           eda                 
   EDA2              2                   
   METHOD            wB97X-D             
   BASIS             def2-SV(P)          
   SCF_CONVERGENCE   8                   
   THRESH            14                  
   SYMMETRY          false               
   DISP_FREE_X       wB97X-D             
   DISP_FREE_C       none                
   EDA_BSSE          true                
$end
