%nprocshared=4
%mem=8000mb
%chk=4.chk
%nprocshared=4
%mem=8000mb
#T wB97XD/def2svpp opt=tight freq int(grid=ultrafine) scf=(verytight,qc) Volume=tight

Dimer

0 1
 C         -1.9947940919       -1.2310252572       -0.4076290039
 C         -2.0325607693        0.2892745373       -0.5023279549
 C         -2.0310651455        0.9385324819        0.8760522653
 H         -1.9945824152       -1.6783212104       -1.3992353622
 H         -2.8626258359       -1.6003297433        0.1349434138
 H         -1.0998022856       -1.5581614351        0.1171080317
 H         -2.9290607739        0.5966488023       -1.0456447307
 H         -1.1668377367        0.6394317939       -1.0685878603
 H         -2.9013046664        0.6223703945        1.4474875904
 H         -2.0513818170        2.0228974948        0.7914153557
 H         -1.1391321720        0.6538554660        1.4305825058
 C          2.0316765432       -0.9385257894        0.8758789977
 C          2.0306557819       -0.2893163764       -0.5025241198
 C          1.9959579487        1.2310570709       -0.4078107348
 H          2.0496046737       -2.0229374810        0.7912484436
 H          1.1418826742       -0.6520568642        1.4329137890
 H          2.9041424258       -0.6240730968        1.4448438628
 H          1.1627298063       -0.6378193986       -1.0664009429
 H          2.9250701642       -0.5984407363       -1.0482754142
 H          2.8661530233        1.5987878400        0.1320432866
 H          1.1031820531        1.5598995098        0.1196461789
 H          1.9935088900        1.6782883799       -1.3994452560


