%chk=monomer.chk
%nprocshared=4
%mem=8000mb
#T wB97XD/def2svpp opt=tight freq int(grid=ultrafine) scf=(verytight,qc) Volume=tight

Monomer

0 1
 O         -1.1064021139        0.0599627239       -2.7354568810
 C         -0.6730829754        0.8937665227       -1.6863226013
 C         -0.1937007846        0.0036122174       -0.5226284934
 C         -1.3210137819       -0.9466449472       -0.1079450084
 Br        -2.9056315973       -0.0218458537        0.5426089089
 C          0.9726804063       -0.8315109620       -1.0562137202
 Br         1.6702837789       -2.1110245012        0.2396109127
 C          0.2193837232        0.8509810733        0.6777972378
 Br         1.6445272465        2.1175611343        0.2689692909
 H         -1.4668195543        0.6052641678       -3.4411577971
 H         -1.4897647926        1.5383066259       -1.3334528118
 H          0.1528982634        1.5359450197       -2.0210143015
 H         -1.0072880827       -1.6075762764        0.6992776952
 H         -1.6430546734       -1.5308250048       -0.9692916498
 H          1.8104200265       -0.1898261291       -1.3294129171
 H          0.6535857902       -1.4049825354       -1.9251713905
 H          0.5959815808        0.2214670757        1.4851681894
 H         -0.6157303894        1.4491347567        1.0414776872



