$molecule
0 1
--
0 1
C        3.954852    0.498692    0.433419 
C        2.569091   -0.000340    0.000617 
C        1.823138   -0.557256    1.221492 
C        1.775436    1.165644   -0.605752 
C        2.727443   -1.109097   -1.049383 
H        4.552033   -0.319604    0.874907 
H        3.870045    1.300569    1.189088 
H        4.519089    0.902939   -0.426505 
H        1.679638    0.222763    1.991066 
H        2.386217   -1.388510    1.683352 
H        0.825948   -0.939250    0.941079 
H        1.621520    1.971392    0.134695 
H        0.780870    0.833917   -0.953805 
H        2.306553    1.599584   -1.472299 
H        3.300775   -1.962202   -0.643679 
H        3.260641   -0.738083   -1.943405 
H        1.742663   -1.489742   -1.376281 
--
0 1
C       -3.953888   -0.466351    0.470834 
C       -2.569063    0.000406    0.000619 
C       -1.822355    0.647160    1.175889 
C       -1.774977   -1.206739   -0.518364 
C       -2.729650    1.027931   -1.128676 
H       -3.867547   -1.209460    1.284202 
H       -4.518404   -0.934324   -0.355946 
H       -4.551605    0.382035    0.850490 
H       -1.676599   -0.073659    2.000772 
H       -2.386193    1.509435    1.575808 
H       -0.826143    1.008956    0.866587 
H       -1.619898   -1.955400    0.279541 
H       -0.780930   -0.901026   -0.890792 
H       -2.306380   -1.704010   -1.350013 
H       -3.263245    0.590934   -1.992122 
H       -1.745619    1.384258   -1.484003 
H       -3.303593    1.908192   -0.786900 
$end

$rem
   JOBTYPE           eda                 
   EDA2              2                   
   METHOD            wB97X-D             
   BASIS             def2-SV(P)          
   SCF_CONVERGENCE   8                   
   THRESH            14                  
   SYMMETRY          false               
   DISP_FREE_X       wB97X-D             
   DISP_FREE_C       none                
   EDA_BSSE          true                
$end
