$molecule
0 1
--
0 1
Cl        1.229336    0.714024   -1.990766
C        2.192670   -0.546739   -1.143996
C        3.063833    0.000002   -0.000001
C        3.934474   -1.152556    0.533325
Cl        5.092544   -1.798522   -0.677222
C        3.934481    1.152549   -0.533339
Cl        5.092574    1.798501    0.677192
C        2.192693    0.546753    1.144006
Cl        1.229355   -0.713997    1.990791
H        2.818748   -1.025835   -1.908858
H        1.468995   -1.276237   -0.752290
H        3.307234   -1.994524    0.854397
H        4.533256   -0.805440    1.387327
H        3.307247    1.994526   -0.854402
H        4.533246    0.805427   -1.387351
H        1.469022    1.276259    0.752308
H        2.818787    1.025841    1.908859
--
0 1
Cl       -5.092537    0.677191   -1.798538
C       -3.934462   -0.533343   -1.152557
C       -3.063831   -0.000001    0.000001
C       -2.192687   -1.143998    0.546770
Cl       -1.229342   -1.990794   -0.713967
C       -2.192671    1.143993   -0.546745
Cl       -1.229355    1.990785    0.714018
C       -3.934489    0.533342    1.152538
Cl       -5.092582   -0.677189    1.798492
H       -3.307215   -0.854415   -1.994521
H       -4.533238   -1.387348   -0.805439
H       -2.818779   -1.908847    1.025866
H       -1.469019   -0.752287    1.276272
H       -2.818750    1.908844   -1.025856
H       -1.468985    0.752283   -1.276231
H       -4.533256    1.387348    0.805405
H       -3.307262    0.854415    1.994517
$end

$rem
   JOBTYPE           eda       
   EDA2              2         
   METHOD            wB97x-D   
   BASIS             def2-SV(P)
   SCF_CONVERGENCE   8         
   THRESH            14        
   SYMMETRY          false     
   DISP_FREE_X       wB97X-D   
   DISP_FREE_C       none      
   EDA_BSSE          true      
$end
