%nprocshared=4
%mem=8000mb
#T wB97XD/def2svpp opt=tight freq int(grid=ultrafine) scf=(verytight,qc)

dimer

0 1
 C          1.8983473701       -2.4182965933       -0.4303196306
 C          1.9504787966       -1.2451516662        0.5437428878
 C          2.7517590705       -0.0148513947        0.0809012777
 C          2.2403246255        0.5296280177       -1.2681374659
 O          0.8711038218        0.8508307320       -1.2603730918
 C          2.6316630388        1.0981264097        1.1505967060
 O          1.3705508232        1.7235162780        1.2127170029
 C          4.2461957835       -0.3783965080       -0.0483492994
 O          5.0919862760        0.7163984810       -0.2992214274
 H          2.8920114630       -2.7936826424       -0.6605229535
 H          1.4006657435       -2.1431726827       -1.3555175545
 H          1.3302497807       -3.2275043259        0.0225146601
 H          2.3831805565       -1.5893176209        1.4866613667
 H          0.9270822588       -0.9315746424        0.7470846545
 H          2.3838081610       -0.2099497918       -2.0604669593
 H          2.8150026215        1.4314914420       -1.5291176276
 H          0.7456368177        1.4196265223       -0.4744912496
 H          3.3420814379        1.8948146959        0.9124722719
 H          2.9053527388        0.6828965094        2.1287969425
 H          0.7043581093        1.0990642286        1.5488223242
 H          4.3716587717       -1.1391740174       -0.8290530830
 H          4.5945569772       -0.7953066609        0.8999520509
 H          4.9107867009        1.0616383780       -1.1797122579
 C         -4.2425085723        2.1640135586       -0.6977494128
 C         -4.3230207266        0.7357169713       -0.1684355654
 C         -2.9769002079        0.0106010273        0.0149597075
 C         -2.2950476548       -0.1725215537       -1.3625729215
 O         -1.1580006538       -1.0033982064       -1.3402092492
 C         -2.0935532805        0.8009178583        1.0002560646
 O         -0.9375826795        0.1191887253        1.4280905212
 C         -3.2916374042       -1.3832989470        0.6063158944
 O         -2.1507293315       -2.1743011782        0.8464789356
 H         -3.6890242698        2.8062651238       -0.0189969813
 H         -5.2482682069        2.5660655822       -0.7961854060
 H         -3.7706397030        2.1983281902       -1.6752597272
 H         -4.9375310631        0.1438364293       -0.8510645654
 H         -4.8348745211        0.7516737920        0.7970891267
 H         -2.0350647651        0.8061917669       -1.7750492444
 H         -3.0162307839       -0.6508426744       -2.0364392145
 H         -0.3675302490       -0.4387370470       -1.2232433991
 H         -2.7060369065        1.0613425226        1.8774049790
 H         -1.7445539795        1.7278618982        0.5371657358
 H         -1.2002214230       -0.8122344310        1.5703246169
 H         -3.9743413652       -1.9094155955       -0.0762428906
 H         -3.7961780152       -1.2739144569        1.5719120008
 H         -1.6387068793       -2.1633520345        0.0128433356

