$molecule
0 1
--
0 1
O       -1.894794    1.882470    1.152908 
C       -2.376648    0.564746    1.294590 
C       -2.768758   -0.110725   -0.045000 
C       -3.668708    0.837658   -0.869640 
O       -2.964497    1.995209   -1.283641 
C       -1.543596   -0.540573   -0.881222 
O       -0.773726    0.545655   -1.363944 
C       -3.543310   -1.388721    0.297788 
O       -4.689802   -1.072635    0.980783 
F       -3.873928   -2.065936   -0.861601 
H       -0.916606    1.866072    1.110086 
H       -3.279550    0.618835    1.922970 
H       -1.633372   -0.064600    1.818879 
H       -4.560361    1.112992   -0.278447 
H       -4.015773    0.328594   -1.782432 
H       -2.645404    2.415387   -0.456419 
H       -1.883114   -1.152800   -1.734401 
H       -0.870374   -1.161484   -0.264857 
H       -1.411874    1.244007   -1.649536 
H       -2.903528   -2.089369    0.872153 
H       -5.124029   -1.884167    1.279825 
--
0 1
O        4.781443   -1.336417    0.544523 
C        3.679313   -0.783678    1.225475 
C        2.737928    0.030675    0.308062 
C        3.474240    1.272254   -0.245448 
O        4.672105    0.948358   -0.916109 
C        2.235356   -0.855984   -0.854239 
O        3.274873   -1.243723   -1.727583 
C        1.567142    0.530342    1.167526 
O        0.732962    1.420583    0.555451 
F        0.831410   -0.574652    1.598986 
H        5.254315   -0.584042    0.139167 
H        4.021051   -0.137850    2.061692 
H        3.124270   -1.626656    1.667062 
H        3.751274    1.943301    0.586354 
H        2.793154    1.838741   -0.907909 
H        4.416295    0.360928   -1.653031 
H        1.502414   -0.309754   -1.470157 
H        1.722869   -1.745549   -0.440277 
H        3.917366   -1.737651   -1.183836 
H        1.943880    1.020374    2.081068 
H        0.313498    1.058022   -0.280866 
$end

$rem
   JOBTYPE           eda                 
   EDA2              2                   
   METHOD            wB97X-D             
   BASIS             def2-SV(P)          
   SCF_CONVERGENCE   8                   
   THRESH            14                  
   SYMMETRY          false               
   DISP_FREE_X       wB97X-D             
   DISP_FREE_C       none                
   EDA_BSSE          true                
$end
