#T wB97XD/def2svpp opt=tight freq int(grid=ultrafine) scf=(verytight,qc)

Comment gs min

0 1
C          0.91493       -0.03333       -0.05416
C          2.44282       -0.03333       -0.05416
C          2.95213       -1.47352       -0.08441
C          2.95213        0.71297       -1.28628
C          2.95212        0.66058        1.20821
H          0.52206       -0.52624       -0.95088
H          0.52206        0.98970       -0.03268
H          0.52206       -0.56345        0.82106
H          2.60072       -1.99574       -0.98175
H          2.60071       -2.03296        0.79020
H          4.04782       -1.50283       -0.08503
H          2.60072        0.23525       -2.20808
H          4.04782        0.72816       -1.31136
H          2.60071        1.75119       -1.28987
H          2.60071        0.14457        2.10913
H          2.60071        1.69773        1.25539
H          4.04781        0.67470        1.23391
