$molecule
0 1
--
0 1
C       -3.347206   -1.158284   -0.266575
C       -1.975427   -0.504811   -0.131018
N       -1.467165   -0.158949   -1.449438
C       -2.026295    0.659054    0.872254
O       -0.766951    1.223576    1.145926
H       -4.088361   -0.431119   -0.649147
H       -3.717193   -1.538342    0.700968
H       -3.295279   -1.996087   -0.980751
H       -1.284571   -1.260723    0.294101
H       -2.147061    0.416997   -1.948785
H       -0.605330    0.389277   -1.388762
H       -2.499773    0.312321    1.815122
H       -2.661986    1.465896    0.463957
H       -0.118338    0.503817    1.373753
--
0 1
C        3.174606   -1.372009   -0.159231
C        1.891653   -0.544519   -0.070342
N        1.307036   -0.559221    1.281495
C        2.137498    0.901499   -0.526590
O        0.994861    1.624023   -0.867210
H        3.542462   -1.433467   -1.197602
H        3.004316   -2.402413    0.199076
H        3.975020   -0.924338    0.459536
H        1.134408   -0.977601   -0.747398
H        1.062461   -1.513214    1.552160
H        1.994270   -0.228934    1.964112
H        2.768630    0.873354   -1.430580
H        2.732285    1.419125    0.260838
H        0.372694    1.686270   -0.105709
$end

$rem
   JOBTYPE           eda       
   EDA2              2         
   METHOD            wB97x-D   
   BASIS             def2-SV(P)
   SCF_CONVERGENCE   8         
   THRESH            14        
   SYMMETRY          false     
   DISP_FREE_X       wB97X-D   
   DISP_FREE_C       none      
   EDA_BSSE          true      
$end