$molecule
0 1
--
0 1
C        2.109126    1.235140   -1.187661
C        2.445701    0.430721    0.053551
C        2.473078    1.240742    1.333133
N        1.475668   -0.745193    0.211826
O        1.465053   -1.303247    1.279214
O        0.781219   -1.029845   -0.735646
N        3.806302   -0.235658   -0.172672
O        4.767529    0.473650   -0.012462
O        3.812676   -1.382986   -0.542391
H        1.101942    1.667261   -1.080297
H        2.133695    0.604166   -2.087584
H        2.844570    2.048669   -1.284741
H        1.472307    1.666172    1.502284
H        3.203141    2.054695    1.220277
H        2.752904    0.613575    2.191490
--
0 1
C       -2.121749   -1.215652    1.213117
C       -2.444212   -0.432468   -0.045004
C       -2.448651   -1.260725   -1.312659
N       -3.808169    0.235608    0.155493
O       -3.815554    1.361814    0.586038
O       -4.770340   -0.451377   -0.077656
N       -1.477557    0.745156   -0.209111
O       -0.761386    1.018961    0.725251
O       -1.491093    1.314642   -1.270510
H       -2.857635   -2.028459    1.315163
H       -2.157531   -0.569599    2.101897
H       -1.113137   -1.648780    1.125191
H       -2.719284   -0.646776   -2.183471
H       -3.176223   -2.076835   -1.200217
H       -1.443053   -1.682921   -1.460320
$end

$rem
   JOBTYPE           eda                 
   EDA2              2                   
   METHOD            wB97X-D             
   BASIS             def2-SV(P)          
   SCF_CONVERGENCE   8                   
   THRESH            14                  
   SYMMETRY          false               
   DISP_FREE_X       wB97X-D             
   DISP_FREE_C       none                
   EDA_BSSE          true                
$end
