$molecule
0 1
--
0 1
C        1.913935    2.369716    0.491930 
C        1.820212    1.160447   -0.437135 
C        2.686784   -0.069684   -0.100118 
C        2.444352   -0.547574    1.343709 
O        1.099206   -0.900327    1.590034 
C        2.330948   -1.215747   -1.075974 
O        1.033491   -1.742540   -0.882386 
C        4.176889    0.273919   -0.284915 
O        5.057014   -0.808491   -0.096596 
H        2.937525    2.776216    0.562108 
H        1.570244    2.131881    1.512893 
H        1.265530    3.178816    0.114965 
H        2.060470    1.473719   -1.470877 
H        0.772539    0.830386   -0.455563 
H        2.716313    0.240250    2.067502 
H        3.091325   -1.423650    1.550346 
H        0.843146   -1.459616    0.816127 
H        3.039910   -2.045167   -0.926987 
H        2.453553   -0.859394   -2.118021 
H        0.350785   -1.151605   -1.283706 
H        4.449815    1.121232    0.375242 
H        4.333821    0.614156   -1.323038 
H        5.166561   -0.975204    0.847721 
--
0 1
C       -4.472268   -1.847781    0.596398 
C       -4.311053   -0.388309    0.169311 
C       -2.865251    0.103999   -0.057130 
C       -2.058439   -0.086391    1.249737 
O       -0.956538    0.784799    1.362302 
C       -2.266565   -0.665947   -1.252417 
O       -1.009568   -0.197921   -1.690443 
C       -2.940852    1.608758   -0.401885 
O       -1.684611    2.171259   -0.723500 
H       -4.085625   -2.549187   -0.162152 
H       -5.539480   -2.083123    0.745243 
H       -3.954417   -2.059267    1.547433 
H       -4.776379    0.259162    0.935643 
H       -4.888835   -0.220207   -0.758510 
H       -1.725217   -1.138210    1.331295 
H       -2.740014    0.103264    2.103184 
H       -0.135560    0.264960    1.544904 
H       -2.989612   -0.623295   -2.093139 
H       -2.130804   -1.729649   -0.993017 
H       -1.024421    0.783582   -1.625654 
H       -3.404390    2.156071    0.443956 
H       -3.590570    1.754293   -1.282433 
H       -1.130323    2.002924    0.070188 
$end

$rem
   JOBTYPE           eda                 
   EDA2              2                   
   METHOD            wB97X-D             
   BASIS             def2-SV(P)          
   SCF_CONVERGENCE   8                   
   THRESH            14                  
   SYMMETRY          false               
   DISP_FREE_X       wB97X-D             
   DISP_FREE_C       none                
   EDA_BSSE          true                
$end
