%chk=23.chk
%nprocshared=4
%mem=8000mb
#T wB97XD/def2svpp opt=tight freq int(grid=ultrafine) scf=(verytight,qc) Volume=tight

Monomer

0 1
C       -0.568488    1.734516   -0.309191 
C        0.023094    0.358549    0.006619 
N        0.099680    0.074760    1.442535 
C       -0.825186   -0.749511   -0.620669 
O       -2.085280   -0.766195    0.012598 
C        1.465649    0.246276   -0.526964 
O        2.070536   -0.926997   -0.078321 
H       -1.616621    1.788842    0.028680 
H       -0.544275    1.940819   -1.394472 
H        0.006108    2.530732    0.197884 
H       -0.819018   -0.211902    1.782475 
H        0.386066    0.903371    1.964374 
H       -0.293868   -1.710091   -0.488282 
H       -0.923949   -0.553915   -1.707585 
H       -2.562906   -1.560886   -0.253591 
H        2.027670    1.149213   -0.196867 
H        1.471808    0.245416   -1.631621 
H        1.718767   -1.038355    0.828278 


