%nprocshared=4
%mem=8000mb
%chk=16.chk
%nprocshared=4
%mem=8000mb
#T wB97XD/def2svpp opt=tight freq int(grid=ultrafine) scf=(verytight,qc) Volume=tight

Dimer

0 1
 C          1.7297554169       -2.5809668270        0.2694326481
 C          1.7370620895       -1.1264579346        0.7277187738
 C          2.8589057077       -0.2321613141        0.1588603680
 C          4.2101617050       -0.7048711628        0.7068362379
 C          2.9210983495       -0.2959746409       -1.3775733358
 C          1.6556822494        0.1387222081       -2.1093644022
 C          2.5720248033        1.1980764514        0.6640731010
 C          3.5279788294        2.2859894234        0.1864123952
 H          0.9292752213       -3.1158787956        0.7776834540
 H          2.6658905971       -3.0786825137        0.5076221738
 H          1.5568694127       -2.6596207690       -0.8005387381
 H          1.8143451149       -1.1075014936        1.8180930200
 H          0.7740538709       -0.6820425500        0.4704754146
 H          5.0203512148       -0.0913636988        0.3217189229
 H          4.4079630280       -1.7320244237        0.4118018709
 H          4.2229335564       -0.6506538598        1.7934019400
 H          3.1615509702       -1.3202820029       -1.6688137797
 H          3.7518873458        0.3275923124       -1.7134661684
 H          0.8079200128       -0.4859840377       -1.8420456208
 H          1.8089471228        0.0544701772       -3.1838177525
 H          1.4053314254        1.1724696259       -1.8868786308
 H          2.5919441812        1.1762782099        1.7570361117
 H          1.5588163533        1.4795918953        0.3698228325
 H          3.4886246519        2.4022390973       -0.8932646163
 H          4.5527172545        2.0700641721        0.4761373463
 H          3.2467437642        3.2365639817        0.6358188206
 C         -3.2222521071       -2.3007790393       -0.5692163390
 C         -2.3254955019       -1.0857123655       -0.7819330776
 C         -2.8220034865        0.2450303862       -0.1767697236
 C         -4.1176907226        0.6699046154       -0.8767814993
 C         -3.1144381494        0.1160388302        1.3287349036
 C         -1.9311925247       -0.2937084477        2.1994865459
 C         -1.7217016428        1.2894649602       -0.4598536995
 C         -1.9478257472        2.6849687828        0.1119727767
 H         -2.7872927362       -3.1624281189       -1.0722258084
 H         -4.2150095576       -2.1403865471       -0.9806793578
 H         -3.3179238104       -2.5432197304        0.4856716740
 H         -2.1968200245       -0.9355103007       -1.8573195057
 H         -1.3401669611       -1.3142732119       -0.3711689938
 H         -3.9583354118        0.7707020323       -1.9482839243
 H         -4.4712110591        1.6221662296       -0.4903321746
 H         -4.9038333417       -0.0622883341       -0.7128933143
 H         -3.9166648096       -0.6123981376        1.4613126155
 H         -3.4990432877        1.0729430096        1.6869442216
 H         -2.2497881203       -0.3644634157        3.2379451806
 H         -1.1273730696        0.4356857620        2.1453373786
 H         -1.5381262546       -1.2625296270        1.9032708246
 H         -1.6105619466        1.3733342254       -1.5442077859
 H         -0.7743849005        0.9114985599       -0.0712862497
 H         -1.1261722750        3.3342189660       -0.1853940576
 H         -1.9835258635        2.6681579762        1.1979257492
 H         -2.8699257017        3.1234171161       -0.2596618997


