$molecule
0 1
--
0 1
O        1.385302    0.942366   -2.200107 
C        2.319545    0.038141   -1.686825 
C        2.576988    0.253127   -0.186999 
Br        4.061464   -0.878900    0.348591 
C        2.867907    1.717641    0.178882 
O        1.744154    2.516264    0.026774 
N        1.376506   -0.217953    0.638349 
O        1.319876    0.123703    1.790380 
O        0.557964   -0.911454    0.073414 
H        0.480149    0.583648   -2.148894 
H        3.279498    0.231356   -2.193044 
H        2.040070   -1.011806   -1.869907 
H        3.723917    2.035102   -0.452380 
H        3.179713    1.772785    1.231753 
H        1.405115    2.393632   -0.878613 
--
0 1
O       -2.332535    1.648844    1.988762 
C       -2.271606    0.296151    1.626623 
C       -2.680388    0.037590    0.161692 
Br       -2.865108   -1.864320   -0.100457 
C       -3.998319    0.741221   -0.243185 
O       -3.880420    2.121189   -0.239435 
N       -1.595365    0.567247   -0.764468 
O       -0.959492    1.511516   -0.350855 
O       -1.443445    0.069661   -1.853710 
H       -1.544261    2.083744    1.624054 
H       -3.000843   -0.237916    2.254447 
H       -1.272404   -0.139514    1.804840 
H       -4.775262    0.361096    0.451285 
H       -4.268885    0.426595   -1.263423 
H       -3.603269    2.388976    0.655108 
$end

$rem
   JOBTYPE           eda                 
   EDA2              2                   
   METHOD            wB97X-D             
   BASIS             def2-SV(P)          
   SCF_CONVERGENCE   8                   
   THRESH            14                  
   SYMMETRY          false               
   DISP_FREE_X       wB97X-D             
   DISP_FREE_C       none                
   EDA_BSSE          true                
$end
