%nprocshared=4
%mem=8000mb
%chk=10.chk
%mem=8000mb
#T wB97XD/def2svpp opt=tight freq int(grid=ultrafine) scf=(verytight,qc)

comment

1 2
C        2.183381    0.034950   -0.000001
C        0.874166    0.822249    0.000014
C       -0.435093   -0.000230    0.000000
C       -0.524621   -0.882485    1.253928
C       -1.613770    0.985107    0.000048
C       -0.524650   -0.882396   -1.253988
H        3.044427    0.725209    0.000005
H        2.279076   -0.607833   -0.891843
H        2.279081   -0.607854    0.891826
H        0.860139    1.489243   -0.883072
H        0.860141    1.489212    0.883123
H       -0.429321   -0.277038    2.173768
H        0.265231   -1.653436    1.271590
H       -1.496888   -1.405858    1.294315
H       -1.588540    1.635876    0.892824
H       -2.580168    0.449365    0.000038
H       -1.588558    1.635940   -0.892681
H        0.265225   -1.653322   -1.271743
H       -0.429411   -0.276878   -2.173787
H       -1.496903   -1.405797   -1.294370


