#T wB97XD/def2svpp opt=tight freq int(grid=ultrafine) scf=(verytight,qc)

Comment gs min

0 1
C          2.91956        1.01978        1.02749
C          2.47624        0.07253       -0.08920
C          3.01170       -1.38657        0.01288
C          2.52573       -2.07417        1.30987
O          1.10395       -2.11430        1.40724
C          2.52794       -2.21109       -1.21427
O          1.11136       -2.25603       -1.33624
C          4.55863       -1.36587       -0.02710
O          5.11775       -2.67224        0.01971
H          2.57757        2.03741        0.80935
H          4.00592        1.06843        1.12574
H          2.49697        0.72920        1.99438
H          2.80629        0.50291       -1.04390
H          1.38033        0.07755       -0.12137
H          2.91567       -1.57621        2.20434
H          2.86605       -3.11295        1.34995
H          0.78755       -1.20698        1.56495
H          2.88662       -3.23844       -1.17352
H          2.91617       -1.77521       -2.14236
H          0.77864       -2.72813       -0.54725
H          4.98644       -0.79722        0.80372
H          4.90590       -0.89622       -0.95387
H          5.09251       -2.98158        0.94180
