$molecule
0 1
--
0 1
C        3.964353    0.569087    0.109553
C        2.563962   -0.069749    0.052293
C        2.620321   -1.378415   -0.754734
C        2.010122   -0.314450    1.455159
C        1.676793    0.897833   -0.709178
O        0.735845    1.498949   -0.261430
H        4.671825   -0.125934    0.594869
H        3.953944    1.507647    0.691186
H        4.353182    0.792309   -0.900707
H        3.301027   -2.093184   -0.259781
H        3.001934   -1.206099   -1.777895
H        1.620932   -1.839914   -0.822860
H        1.930205    0.628899    2.021297
H        2.674960   -0.998473    2.011574
H        1.007059   -0.767790    1.397941
H        1.974351    1.045721   -1.782777
--
0 1
C       -2.010088    0.314505    1.455137
C       -2.563959    0.069751    0.052293
C       -3.964362   -0.569054    0.109611
C       -2.620311    1.378381   -0.754793
C       -1.676826   -0.897881   -0.709155
O       -0.735851   -1.498965   -0.261417
H       -1.930180   -0.628821    2.021317
H       -2.674902    0.998566    2.011534
H       -1.007018    0.767823    1.397882
H       -4.353218   -0.792311   -0.900632
H       -4.671809    0.126000    0.594914
H       -3.953960   -1.507591    0.691281
H       -1.620920    1.839870   -0.822953
H       -3.301005    2.093179   -0.259865
H       -3.001939    1.206022   -1.777942
H       -1.974440   -1.045843   -1.782729
$end

$rem
   JOBTYPE           eda       
   EDA2              2         
   METHOD            wB97x-D   
   BASIS             def2-SV(P)
   SCF_CONVERGENCE   8         
   THRESH            14        
   SYMMETRY          false     
   DISP_FREE_X       wB97X-D   
   DISP_FREE_C       none      
   EDA_BSSE          true      
$end