$molecule
0 1
--
0 1
C       -1.758693    1.317221   -1.260742
C       -2.417770    0.769714    0.000032
C       -1.758635    1.317258    1.260760
C       -3.923177    1.012533    0.000063
Br       -2.149836   -1.211346    0.000056
H       -1.907204    2.412650   -1.294546
H       -2.204805    0.880535   -2.169540
H       -0.673805    1.122108   -1.264010
H       -2.204710    0.880603    2.169592
H       -1.907140    2.412689    1.294536
H       -0.673748    1.122140    1.263988
H       -4.400398    0.580298   -0.894847
H       -4.111074    2.102306    0.000051
H       -4.400358    0.580324    0.895007
--
0 1
C        1.758654   -1.317250   -1.260778
C        2.417774   -0.769714   -0.000038
C        1.758687   -1.317233    1.260726
C        3.923182   -1.012526   -0.000057
Br        2.149831    1.211345   -0.000047
H        1.907165   -2.412679   -1.294563
H        2.204735   -0.880583   -2.169600
H        0.673766   -1.122138   -1.264016
H        2.204801   -0.880564    2.169531
H        1.907188   -2.412664    1.294514
H        0.673802   -1.122109    1.263995
H        4.111083   -2.102299   -0.000051
H        4.400393   -0.580295    0.894860
H        4.400369   -0.580310   -0.894994
$end

$rem
   JOBTYPE           eda                 
   EDA2              2                   
   METHOD            wB97X-D             
   BASIS             def2-SV(P)          
   SCF_CONVERGENCE   8                   
   THRESH            14                  
   SYMMETRY          false               
   DISP_FREE_X       wB97X-D             
   DISP_FREE_C       none                
   EDA_BSSE          true                
$end
