$molecule
0 1
--
0 1
C        4.166637    1.270244    0.169048
C        3.543958   -0.000052   -0.420282
C        4.166685   -1.270150    0.169420
C        2.021821   -0.000054   -0.277463
N        1.530535    0.000096    0.975764
O        1.301649   -0.000183   -1.272395
H        5.248385    1.302812   -0.048379
H        4.048377    1.313982    1.266787
H        3.705457    2.176823   -0.257854
H        3.710755   -0.000208   -1.508504
H        3.705539   -2.176872   -0.257215
H        4.048430   -1.313572    1.267172
H        5.248434   -1.302741   -0.047998
H        2.148377    0.000206    1.776520
H        0.507160    0.000121    1.130931
--
0 1
C       -4.166637    1.270203   -0.169337
C       -3.543958    0.000042    0.420283
C       -4.166685   -1.270191   -0.169129
C       -2.021821    0.000018    0.277462
N       -1.530536   -0.000157   -0.975765
O       -1.301648    0.000163    1.272393
H       -4.048363    1.313697   -1.267084
H       -3.705466    2.176879    0.257369
H       -5.248388    1.302815    0.048070
H       -3.710754    0.000135    1.508504
H       -3.705530   -2.176816    0.257701
H       -4.048445   -1.313857   -1.266873
H       -5.248432   -1.302738    0.048310
H       -2.148378   -0.000267   -1.776520
H       -0.507161   -0.000171   -1.130933
$end

$rem
   JOBTYPE           eda       
   EDA2              2         
   METHOD            wB97x-D   
   BASIS             def2-SV(P)
   SCF_CONVERGENCE   8         
   THRESH            14        
   SYMMETRY          false     
   DISP_FREE_X       wB97X-D   
   DISP_FREE_C       none      
   EDA_BSSE          true      
$end