%chk=1.chk
%nprocshared=4

Monomer

0 1
C        0.000203    0.000293    1.765439
C        0.000002   -0.000031    0.249109
Cl        0.583032   -1.576919   -0.362392
Cl       -1.657413    0.283508   -0.362387
Cl        1.074253    1.293266   -0.362639
H       -0.662885   -0.798299    2.133305
H       -0.359669    0.974104    2.132753
H        1.023515   -0.174911    2.132761









