$molecule
0 1
--
0 1
C       -1.427925   -0.517128    1.671094
C       -2.223449    0.467428    0.812710
O       -1.358929    1.380634    0.180504
C       -3.205693   -0.188650   -0.202915
C       -4.165450   -1.140642    0.524522
C       -4.019131    0.934866   -0.861952
C       -2.445899   -0.960122   -1.291294
H       -0.790779   -1.171664    1.049714
H       -2.080514   -1.156650    2.287587
H       -0.771322    0.051771    2.351111
H       -2.843269    1.079588    1.493905
H       -0.653579    0.885576   -0.281140
H       -3.653384   -2.046819    0.892096
H       -4.969926   -1.470877   -0.156855
H       -4.643692   -0.643649    1.388928
H       -3.349009    1.673316   -1.330707
H       -4.636964    1.465555   -0.114671
H       -4.696920    0.529714   -1.635042
H       -1.827869   -1.772705   -0.871088
H       -1.781542   -0.293668   -1.866988
H       -3.156678   -1.417186   -2.003000
--
0 1
C        2.023569    1.934590    0.352606
C        1.852036    0.431473    0.165380
O        0.911637    0.180284   -0.877520
C        3.148201   -0.395157   -0.044833
C        4.103388   -0.165111    1.134924
C        2.762539   -1.881332   -0.095409
C        3.851562   -0.010114   -1.354623
H        2.477709    2.408211   -0.537042
H        2.656493    2.168942    1.223077
H        1.030329    2.383264    0.519422
H        1.358612    0.030678    1.066336
H        1.198782    0.640897   -1.679048
H        3.593272   -0.333624    2.100946
H        4.518110    0.857457    1.141120
H        4.954530   -0.866472    1.080037
H        2.296147   -2.199866    0.854456
H        3.654103   -2.511502   -0.262448
H        2.041374   -2.074803   -0.905877
H        4.150896    1.052718   -1.368568
H        3.212474   -0.205343   -2.234747
H        4.768453   -0.610804   -1.486649
$end

$rem
   JOBTYPE           eda       
   EDA2              2         
   METHOD            wB97x-D   
   BASIS             def2-SV(P)
   SCF_CONVERGENCE   8         
   THRESH            14        
   SYMMETRY          false     
   DISP_FREE_X       wB97X-D   
   DISP_FREE_C       none      
   EDA_BSSE          true      
$end