$molecule
0 1
--
0 1
C        1.327267   -2.460557    0.302946
C        1.578665   -1.029538    0.771634
C        2.783376   -0.279264    0.154924
C        4.092196   -0.930396    0.629250
C        2.753745   -0.329688   -1.389044
C        1.520923    0.268245   -2.063063
C        2.705824    1.176964    0.677265
C        3.734973    2.165257    0.132269
H        0.475535   -2.895901    0.854193
H        2.198302   -3.116831    0.472809
H        1.075990   -2.504682   -0.770683
H        1.703461   -1.027416    1.870910
H        0.665739   -0.438854    0.583177
H        4.975794   -0.413219    0.216951
H        4.157888   -1.984083    0.307009
H        4.169884   -0.908052    1.731383
H        2.861734   -1.382721   -1.707114
H        3.656399    0.179600   -1.772985
H        0.594443   -0.253110   -1.769003
H        1.607427    0.192796   -3.160766
H        1.390922    1.336141   -1.815460
H        2.789571    1.142774    1.780017
H        1.694699    1.575165    0.471967
H        3.617132    2.325833   -0.953250
H        4.770723    1.829937    0.312198
H        3.618247    3.146967    0.622668
--
0 1
C       -2.920754   -2.312270   -0.663576
C       -2.141435   -1.009617   -0.832017
C       -2.740551    0.262738   -0.183561
C       -4.061621    0.622568   -0.881753
C       -3.033596    0.046570    1.317952
C       -1.839008   -0.323816    2.194169
C       -1.712678    1.400057   -0.403181
C       -2.019923    2.750832    0.239674
H       -2.419544   -3.127888   -1.212696
H       -3.950490   -2.238086   -1.053160
H       -2.982494   -2.620967    0.394255
H       -2.008646   -0.806741   -1.911522
H       -1.123282   -1.164575   -0.434931
H       -3.906333    0.786902   -1.963507
H       -4.505035    1.541097   -0.460198
H       -4.812217   -0.178126   -0.765315
H       -3.806796   -0.737278    1.414657
H       -3.502934    0.963205    1.719216
H       -2.155964   -0.454785    3.243172
H       -1.058618    0.456583    2.180700
H       -1.367585   -1.268508    1.871774
H       -1.591978    1.539633   -1.494016
H       -0.724571    1.061697   -0.043672
H       -1.246584    3.487890   -0.037538
H       -2.032600    2.689616    1.341552
H       -2.992634    3.157481   -0.086108
$end

$rem
   JOBTYPE           eda       
   EDA2              2         
   METHOD            wB97x-D   
   BASIS             def2-SV(P)
   SCF_CONVERGENCE   8         
   THRESH            14        
   SYMMETRY          false     
   DISP_FREE_X       wB97X-D   
   DISP_FREE_C       none      
   EDA_BSSE          true      
$end