%nprocshared=4
%mem=8000mb
%chk=17.chk
%mem=8000mb
#T wB97XD/def2svpp opt=tight freq int(grid=ultrafine) scf=(verytight,qc)

comment

1 2
C       -0.000001    1.172464   -1.271348
C        0.000000    0.341163   -0.000000
C       -0.000001    1.172471    1.271343
Cl       -1.465298   -0.717935    0.000002
Cl        1.465299   -0.717933    0.000002
H       -0.898190    1.811923   -1.295644
H       -0.000001    0.522718   -2.159775
H        0.898185    1.811925   -1.295644
H       -0.898189    1.811931    1.295635
H        0.898185    1.811933    1.295635
H       -0.000000    0.522731    2.159774


