$molecule
0 1
--
0 1
C       -1.813675    0.535129    0.543188
C       -1.813413   -0.535258   -0.543153
H       -1.806188    0.084626    1.550948
H       -2.707410    1.179254    0.473359
H       -0.926930    1.187552    0.463502
H       -2.707544   -1.178926   -0.474188
H       -0.927082   -1.188133   -0.462592
H       -1.804686   -0.084757   -1.550902
--
0 1
C        1.813295    0.543524   -0.534922
C        1.813787   -0.543398    0.534883
H        0.927207    0.462923   -1.188144
H        2.707660    0.475364   -1.178350
H        1.803942    1.551016   -0.083856
H        1.807048   -1.550916    0.083828
H        0.926776   -0.464597    1.187054
H        2.707249   -0.473386    1.179367
$end

$rem
   JOBTYPE           eda       
   EDA2              2         
   METHOD            wB97x-D   
   BASIS             def2-SV(P)
   SCF_CONVERGENCE   8         
   THRESH            14        
   SYMMETRY          false     
   DISP_FREE_X       wB97X-D   
   DISP_FREE_C       none      
   EDA_BSSE          true      
$end