%mem=
%nprocshared=
%chk=aussian_test_optimized_out.chk
# 

Complex aussian_test

0 1
