%nprocshared=4
%mem=8000mb
%chk=monomer.chk
%nprocshared=4
%mem=8000mb
#T wB97XD/def2svpp opt=tight freq int(grid=ultrafine) scf=(verytight,qc) Volume=tight

Monomer

0 1
 C          1.0734659511        0.7650473153        1.2605679224
 C          0.6471603618        0.0055005086       -0.0000299099
 C          1.0733707544        0.7674774676       -1.2591582015
 N          1.2854177028       -1.2981985165       -0.0012526910
 C         -0.8794913623       -0.1214241837        0.0001519543
 O         -1.5090675312        1.0580216658        0.0000383266
 O         -1.4701396103       -1.1703781316       -0.0001586493
 H          0.7404863470        0.2376181131        2.1521255076
 H          0.6481592564        1.7642320718        1.2614989104
 H          2.1574284290        0.8306786060        1.2813799278
 H          0.7402308690        0.2418606995       -2.1517228431
 H          2.1573324101        0.8330551806       -1.2799879890
 H          0.6481681316        1.7667040421       -1.2580767727
 H          0.9966649037       -1.8273845344       -0.8175569014
 H          0.9958886906       -1.8292543871        0.8135615105
 H         -2.4706686130        0.9255572722       -0.0001566352


