%chk=44.chk
%nprocshared=4
%mem=8000mb
#T wB97XD/def2svpp opt=tight freq int(grid=ultrafine) scf=(verytight,qc)

Comment gs min

0 1
C          0.97084       -0.05306       -0.07865
C          2.51467       -0.07597       -0.07830
C          2.99613        1.25251        0.54478
C          2.97488       -1.27288        0.78591
Cl         4.74618       -1.43577        0.91011
C          3.04982       -0.14525       -1.52797
Cl         2.56014       -1.61628       -2.40867
H          0.58079        0.09130        0.93635
H          0.54714       -0.98927       -0.45646
H          0.58661        0.76456       -0.69941
H          2.64815        1.35343        1.57872
H          2.61305        2.11155       -0.01830
H          4.08835        1.33095        0.54970
H          2.59336       -2.22246        0.39757
H          2.59966       -1.17202        1.81017
H          4.14325       -0.10324       -1.55825
H          2.68049        0.70399       -2.11297


