$molecule
0 1
--
0 1
C        3.721996   -0.723410   -0.509103
C        2.556982    0.134506   -0.009362
C        3.085429    1.310805    0.825018
N        1.779184    0.572859   -1.168462
C        1.603262   -0.709876    0.868013
N        0.907259   -1.776925    0.161661
H        4.324387   -1.106528    0.333285
H        4.392330   -0.134751   -1.161917
H        3.349443   -1.579663   -1.096601
H        3.641643    0.967736    1.716739
H        2.247355    1.945217    1.164818
H        3.763866    1.940474    0.221241
H        1.042607    1.235646   -0.887475
H        2.376047    1.033610   -1.855044
H        0.845981   -0.030421    1.300414
H        2.158254   -1.135571    1.722337
H        1.465239   -2.629031    0.131471
H        0.780056   -1.464601   -0.806212
--
0 1
C       -3.085323   -1.310846   -0.825044
C       -2.556969   -0.134516    0.009353
C       -3.722047    0.723347    0.509036
N       -1.779205   -0.572823    1.168488
C       -1.603256    0.709909   -0.867991
N       -0.907308    1.776974   -0.161602
H       -3.641504   -0.967811   -1.716799
H       -3.763765   -1.940539   -0.221297
H       -2.247202   -1.945225   -1.164792
H       -4.324430    1.106415   -0.333380
H       -3.349562    1.579632    1.096530
H       -4.392373    0.134665    1.161839
H       -2.376076   -1.033586    1.855053
H       -1.042579   -1.235577    0.887547
H       -2.158248    1.135595   -1.722319
H       -0.845940    0.030491   -1.300384
H       -0.780174    1.464655    0.806283
H       -1.465313    2.629066   -0.131450
$end

$rem
   JOBTYPE           eda       
   EDA2              2         
   METHOD            wB97x-D   
   BASIS             def2-SV(P)
   SCF_CONVERGENCE   8         
   THRESH            14        
   SYMMETRY          false     
   DISP_FREE_X       wB97X-D   
   DISP_FREE_C       none      
   EDA_BSSE          true      
$end