$molecule
0 1
--
0 1
O       -0.812739    0.327100    1.469709
C       -2.202608    0.295192    1.458049
C       -2.784606    0.029336    0.059731
Cl       -4.559036    0.007656    0.182901
Cl       -2.273899    1.355608   -1.035088
Cl       -2.194001   -1.519562   -0.576647
H       -0.483289    1.032172    0.885609
H       -2.644992    1.240769    1.822631
H       -2.521550   -0.523825    2.120102
--
0 1
O        1.117740   -1.595946    0.918477
C        2.176920   -0.784615    1.250254
C        2.754349   -0.003164    0.048534
Cl        4.140188    0.966375    0.616951
Cl        3.275542   -1.115507   -1.230033
Cl        1.512307    1.111636   -0.633753
H        0.291114   -1.083633    0.999956
H        3.007181   -1.406485    1.627103
H        1.928491   -0.034212    2.026078
$end

$rem
   JOBTYPE           eda       
   EDA2              2         
   METHOD            wB97x-D   
   BASIS             def2-SV(P)
   SCF_CONVERGENCE   8         
   THRESH            14        
   SYMMETRY          false     
   DISP_FREE_X       wB97X-D   
   DISP_FREE_C       none      
   EDA_BSSE          true      
$end