$molecule
0 1
--
0 1
O        3.436187    1.648191    1.023272 
C        3.880933    0.448200    0.428197 
C        2.742080   -0.336047   -0.253199 
C        2.199965    0.479394   -1.450349 
O        1.967206    1.841745   -1.178785 
C        3.300148   -1.654026   -0.831896 
O        3.796098   -2.551112    0.126987 
C        1.661497   -0.700268    0.781718 
O        1.135369    0.400862    1.502033 
H        2.992551    2.140865    0.297336 
H        4.323472   -0.155346    1.239744 
H        4.682115    0.653302   -0.313087 
H        1.281267   -0.002921   -1.837149 
H        2.952551    0.441344   -2.260220 
H        1.017335    1.966481   -0.956535 
H        4.071727   -1.416201   -1.592929 
H        2.488431   -2.187591   -1.356398 
H        4.664768   -2.257032    0.428940 
H        2.085650   -1.437687    1.486159 
H        0.810212   -1.188068    0.273554 
H        1.889036    0.998871    1.706458 
--
0 1
O       -4.919161   -0.391545   -0.060487 
C       -4.103493    0.754351   -0.165505 
C       -2.598856    0.450968   -0.017570 
C       -2.120864   -0.428499   -1.189562 
O       -2.841252   -1.637331   -1.313787 
C       -1.846395    1.792298   -0.048902 
O       -0.454847    1.666418   -0.152503 
C       -2.338396   -0.256821    1.329276 
O       -2.920879   -1.540350    1.410873 
H       -4.611822   -1.003970   -0.756642 
H       -4.426331    1.442422    0.635638 
H       -4.280434    1.270286   -1.132328 
H       -1.038358   -0.629013   -1.076972 
H       -2.252796    0.116713   -2.140489 
H       -2.732749   -2.103015   -0.462421 
H       -2.120208    2.386209    0.847556 
H       -2.171201    2.370938   -0.930710 
H       -0.034107    1.215904    0.623036 
H       -2.704917    0.390716    2.153159 
H       -1.256460   -0.395900    1.489609 
H       -3.879213   -1.409624    1.280622 
$end

$rem
   JOBTYPE           eda                 
   EDA2              2                   
   METHOD            wB97X-D             
   BASIS             def2-SV(P)          
   SCF_CONVERGENCE   8                   
   THRESH            14                  
   SYMMETRY          false               
   DISP_FREE_X       wB97X-D             
   DISP_FREE_C       none                
   EDA_BSSE          true                
$end
