#T wB97XD/def2svpp opt=tight freq int(grid=ultrafine) scf=(verytight,qc)

Comment gs min

0 1
C          1.03549        0.08159       -0.03118
C          2.57010        0.06493       -0.07768
N          3.09305       -0.01851        1.31511
C          3.07624       -1.16120       -0.87778
O          2.66237       -2.38046       -0.25773
C          3.08704        1.36756       -0.72960
O          4.51138        1.42702       -0.67013
H          0.63191       -0.81637        0.45022
H          0.61645        0.13161       -1.04266
H          0.66246        0.94964        0.52492
H          2.62551       -0.79964        1.78111
H          2.78133        0.80661        1.83257
H          4.17018       -1.17920       -0.95110
H          2.67505       -1.15191       -1.89660
H          3.20607       -2.45951        0.54607
H          2.70129        2.25026       -0.20628
H          2.78268        1.43839       -1.77876
H          4.74285        1.06700        0.20859
