$molecule
0 1
--
0 1
C        2.226817   -0.694076   -1.405092
C        2.751334   -0.319363   -0.012938
C        3.028552   -1.603066    0.788183
C        4.039215    0.504259   -0.134520
C        1.688638    0.450356    0.781472
Cl        1.168720    2.001331    0.010630
H        2.005776    0.205609   -2.003946
H        1.306087   -1.298972   -1.329506
H        2.980654   -1.289063   -1.950181
H        3.402379   -1.373992    1.802437
H        3.793988   -2.213420    0.277770
H        2.115408   -2.216263    0.886056
H        4.815527   -0.071528   -0.668365
H        4.438560    0.769966    0.861077
H        3.863323    1.439637   -0.692073
H        2.065613    0.726499    1.778138
H        0.776171   -0.153586    0.900269
--
0 1
C       -4.039220   -0.504287    0.134459
C       -2.751351    0.319354    0.012871
C       -3.028565    1.602993   -0.788353
C       -2.226896    0.694174    1.405020
C       -1.688607   -0.450400   -0.781441
Cl       -1.168677   -2.001302   -0.010457
H       -4.815560    0.071516    0.668245
H       -3.863328   -1.439628    0.692073
H       -4.438527   -0.770060   -0.861135
H       -2.115436    2.216211   -0.886223
H       -3.794044    2.213360   -0.278020
H       -3.402336    1.373838   -1.802609
H       -2.005888   -0.205465    2.003955
H       -2.980755    1.289207    1.950027
H       -1.306158    1.299056    1.329431
H       -0.776146    0.153548   -0.900245
H       -2.065536   -0.726631   -1.778100
$end

$rem
   JOBTYPE           eda       
   EDA2              2         
   METHOD            wB97x-D   
   BASIS             def2-SV(P)
   SCF_CONVERGENCE   8         
   THRESH            14        
   SYMMETRY          false     
   DISP_FREE_X       wB97X-D   
   DISP_FREE_C       none      
   EDA_BSSE          true      
$end