%nprocshared=4
%mem=8000mb
%chk=monomer.chk
%nprocshared=4
%mem=8000mb
#T wB97XD/def2svpp opt=tight freq int(grid=ultrafine) scf=(verytight,qc) Volume=tight

Monomer

0 1
 C         -1.2474064021       -1.2137250733        0.6583711313
 C         -0.7101522799       -0.2419013956       -0.3981729360
 C         -1.5815433631        1.0065419713       -0.4911455947
 C          0.6999681203        0.1310207731        0.0055919530
 O          1.6093092412       -0.6639245311       -0.5763396476
 O          1.0063262479        1.0028124384        0.7723205283
 H         -0.6255574686       -2.1043596629        0.7123360269
 H         -2.2613341056       -1.5122267204        0.4037693212
 H         -1.2589495705       -0.7337941623        1.6343546532
 H         -0.6609983727       -0.7524174873       -1.3637495952
 H         -1.5402330980        1.5538213232        0.4471873713
 H         -2.6127161980        0.7305798492       -0.6958870576
 H         -1.2306155492        1.6612024766       -1.2852626331
 H          2.5033710523       -0.4319908433       -0.2782191010


