%chk=11.chk
%nprocshared=4
%mem=8000mb
#T wB97XD/def2svpp opt=tight freq int(grid=ultrafine) scf=(verytight,qc) Volume=tight

Monomer

0 1
N       -1.663840    1.392445   -0.845882 
C       -0.454520    0.593178   -1.047932 
C       -0.013698   -0.125626    0.243889 
C        0.835047   -1.356559   -0.121445 
N        2.038432   -1.009226   -0.884813 
C        0.801220    0.827080    1.143273 
O        1.934222    1.356879    0.523195 
C       -1.258996   -0.610627    1.023476 
O       -2.256320   -1.132588    0.196106 
H       -1.937240    1.850671   -1.714472 
H       -1.499386    2.132689   -0.162630 
H        0.399671    1.188034   -1.425644 
H       -0.700603   -0.166076   -1.811462 
H        0.183509   -2.090870   -0.638017 
H        1.173571   -1.830116    0.817073 
H        1.808972   -0.770581   -1.850126 
H        2.686798   -1.794746   -0.919095 
H        1.059920    0.279144    2.078282 
H        0.168729    1.680390    1.454902 
H        2.348224    0.616660    0.026247 
H       -1.649725    0.228626    1.636357 
H       -0.966372   -1.406955    1.730085 
H       -2.575744   -0.358411   -0.308609 


