%nprocshared=4
%mem=8000mb
%chk=dimer.chk
%nprocshared=4
%mem=8000mb
#T wB97XD/def2svpp opt=tight freq int(grid=ultrafine) scf=(verytight,qc) Volume=tight

Dimer

0 1
 C          3.3921235836       -0.6206050639        0.5515859952
 C          2.2291283665        0.3174762557        0.2310844834
 C          2.7013573431        1.7684046386        0.2126868458
 C          1.5976560976       -0.0323580494       -1.1223106577
 O          0.9338627620       -1.2803870683       -1.1279900439
 H          4.1469037698       -0.5772899788       -0.2325357656
 H          3.0539104402       -1.6499963196        0.6578422897
 H          3.8577728813       -0.3301821121        1.4899071329
 H          1.4618530276        0.1983800291        1.0030962253
 H          1.8714332832        2.4414146221        0.0109698097
 H          3.4562619055        1.9129671887       -0.5578877521
 H          3.1348114268        2.0369398694        1.1726625462
 H          2.3660375820       -0.0122832962       -1.9078716975
 H          0.8297705418        0.7022185820       -1.3754560355
 H          1.5747637003       -1.9661016108       -0.9088353931
 C         -3.7914951237        0.3341591616       -0.6961648904
 C         -2.3351794812        0.2418886989       -0.2520404718
 C         -1.8612643376        1.5655929750        0.3426921116
 C         -2.1555990894       -0.8926694123        0.7655803720
 O         -0.8146170140       -1.0994386718        1.1253784089
 H         -4.4350614071        0.5397850548        0.1567564024
 H         -4.1152560147       -0.5982616375       -1.1533922070
 H         -3.9163335857        1.1346867838       -1.4217940243
 H         -1.7140169048        0.0029722376       -1.1243485017
 H         -2.5203142788        1.8704578661        1.1530001255
 H         -1.8562277725        2.3488496651       -0.4125258435
 H         -0.8562937297        1.4571714304        0.7433587254
 H         -2.5864901330       -1.8192226676        0.3544477098
 H         -2.6830726923       -0.6521513202        1.6931296005
 H         -0.3026504002       -1.2227011314        0.3063214626


