$molecule
0 1
--
0 1
O        1.243507   -0.000003    1.326053
C        1.874526   -0.000000    0.186380
O        1.332679    0.000006   -0.905911
C        3.399140   -0.000002    0.339438
C        3.816381   -1.232993    1.160375
Cl        3.278181   -2.767114    0.409285
C        4.015979    0.000002   -1.064671
Cl        5.809648    0.000005   -1.019850
C        3.816383    1.232986    1.160381
Cl        3.278185    2.767111    0.409298
H        0.240629   -0.000001    1.189623
H        3.368063   -1.196092    2.162520
H        4.911608   -1.276911    1.242674
H        3.703661    0.893764   -1.619258
H        3.703664   -0.893758   -1.619262
H        4.911609    1.276902    1.242680
H        3.368065    1.196080    2.162525
--
0 1
O       -1.243507    0.000005   -1.326055
C       -1.874526    0.000003   -0.186381
O       -1.332679    0.000004    0.905910
C       -3.399140   -0.000001   -0.339438
C       -3.816380   -1.232993   -1.160376
Cl       -3.278177   -2.767113   -0.409288
C       -4.015979   -0.000000    1.064671
Cl       -5.809647   -0.000001    1.019851
C       -3.816385    1.232987   -1.160380
Cl       -3.278189    2.767112   -0.409295
H       -0.240630    0.000006   -1.189625
H       -3.368063   -1.196089   -2.162521
H       -4.911606   -1.276912   -1.242674
H       -3.703663    0.893762    1.619259
H       -3.703661   -0.893761    1.619261
H       -4.911612    1.276902   -1.242677
H       -3.368069    1.196083   -2.162524
$end

$rem
   JOBTYPE           eda       
   EDA2              2         
   METHOD            wB97x-D   
   BASIS             def2-SV(P)
   SCF_CONVERGENCE   8         
   THRESH            14        
   SYMMETRY          false     
   DISP_FREE_X       wB97X-D   
   DISP_FREE_C       none      
   EDA_BSSE          true      
$end