%chk=15.chk
%nprocshared=4
%mem=8000mb
#T wB97XD/def2svpp opt=tight freq int(grid=ultrafine) scf=(verytight,qc) Volume=tight

Dimer

0 1
 C         -2.2539716731       -0.6325396839        0.8005274447
 C         -0.9408962217        0.1117415906        1.0227483758
 C         -0.1649779627        0.4946314381       -0.2513413006
 C         -0.9171488000        1.5525240386       -1.0592164948
 C          1.1985463164        1.0821952953        0.1795181596
 O          1.9678682861        0.2092538740        0.9610257788
 C          0.0841812620       -0.7236341796       -1.1637660926
 O          0.7604626718       -1.7915332515       -0.5353611238
 H         -2.7303797560       -0.8198319782        1.7605214247
 H         -2.1048118906       -1.5928311706        0.3112436305
 H         -2.9393524002       -0.0439883387        0.1960842005
 H         -0.2849986309       -0.4858989373        1.6615958835
 H         -1.1513164077        1.0342173867        1.5685794171
 H         -1.1277121676        2.4215830802       -0.4409334452
 H         -1.8575485728        1.1580383045       -1.4350831836
 H         -0.3211909633        1.8741485938       -1.9105365740
 H          1.0386204062        1.9735366145        0.7928708081
 H          1.7558143978        1.3824470966       -0.7217588613
 H          2.0269370226       -0.6305460653        0.4784425832
 H          0.7289597134       -0.4256688780       -1.9953522019
 H         -0.8676243102       -1.0708777057       -1.5865319213
 H          0.2073424809       -2.1195362784        0.1830138528


