%nprocshared=4
%mem=8000mb
%chk=dimer.chk
%nprocshared=4
%mem=8000mb
#T wB97XD/def2svpp opt=tight freq int(grid=ultrafine) scf=(verytight,qc) Volume=tight

Dimer

0 1
 C         -2.3165772118       -1.6728375991       -1.2069523237
 C         -2.1850186131       -1.4052552390        0.2948382780
 C         -3.5102705928       -1.6936736572        1.0002866780
 C         -1.1119766063       -2.3299596709        0.9103313610
 O          0.1906243523       -2.1118524129        0.4203381075
 C         -1.7373084480        0.0356235434        0.5336984601
 Br        -3.0416359252        1.3528181648       -0.0691735028
 H         -3.1361057788       -1.0894181240       -1.6198180930
 H         -2.5250391288       -2.7250854362       -1.3898109708
 H         -1.4097940686       -1.3922703942       -1.7426839104
 H         -3.4330078895       -1.4865176908        2.0658815906
 H         -3.7866285123       -2.7377706332        0.8725082533
 H         -4.3050414533       -1.0783127988        0.5858360116
 H         -1.4055835693       -3.3743584819        0.7407680347
 H         -1.0490146511       -2.1623818873        1.9886298213
 H          0.1792682047       -2.2306159975       -0.5383851768
 H         -0.8290637408        0.2545370555       -0.0260189039
 H         -1.5760410030        0.2318810736        1.5933290243
 C          3.7954043612        1.8300737578        0.2280210974
 C          3.2068162682        0.5923459299        0.9042233482
 C          4.1469271933        0.0897624035        2.0051303942
 C          1.8462183721        0.9578208482        1.5367742297
 O          1.2234749111       -0.0968672383        2.2156844716
 C          3.0593379675       -0.5449531729       -0.1033629249
 Br         1.8199276770       -0.1451871712       -1.5522251551
 H          4.7710814626        1.6034908203       -0.1987409394
 H          3.9166158153        2.6332974940        0.9506428385
 H          3.1446369399        2.1891546595       -0.5675846554
 H          3.6713283139       -0.7129129602        2.5642549091
 H          4.3708077171        0.8988279591        2.6954862204
 H          5.0819370875       -0.2756050230        1.5851217043
 H          1.1863849543        1.3751079316        0.7618952166
 H          2.0096456147        1.7366307825        2.2865906102
 H          0.9493870952       -0.7772649254        1.5795253130
 H          2.6785686056       -1.4501858830        0.3687659545
 H          4.0116563418       -0.7589028750       -0.5880782909


