%nprocshared=4
%mem=8000mb
#T wB97XD/def2svpp opt=tight freq int(grid=ultrafine) scf=(verytight,qc)

dimer

0 1
 N         -3.1184777328       -2.4719176161        0.4029966884
 C         -3.7804949694       -1.2717363599       -0.1040851818
 C         -2.8522204960       -0.0430752790       -0.0887789246
 C         -1.6159999186       -0.3080409869       -0.9641764632
 O         -0.8037449913       -1.3486822012       -0.4739092098
 C         -3.6373752106        1.1485403487       -0.6797024258
 O         -2.8664207727        2.3008961397       -0.8485714628
 C         -2.4283892940        0.2841749153        1.3622919986
 O         -1.7701147181        1.5170617582        1.5044093166
 H         -3.6808288856       -3.2913576491        0.2022930518
 H         -3.0077802887       -2.4160344301        1.4099079761
 H         -4.6998407181       -1.0278675274        0.4518543627
 H         -4.0655793302       -1.4722389697       -1.1411816492
 H         -0.9918595689        0.5880215954       -1.0010597393
 H         -1.9523897177       -0.5381610471       -1.9859189467
 H         -1.4015284073       -2.0885360394       -0.2523467222
 H         -4.5017013861        1.3536207536       -0.0275727532
 H         -4.0158759345        0.8844450899       -1.6723005063
 H         -2.4430945741        2.4733177461        0.0120107930
 H         -1.7972436796       -0.5271038638        1.7457292284
 H         -3.3274893028        0.3526127280        1.9851395630
 H         -0.8608154909        1.4340041092        1.1546400220
 N          3.1131265102        2.4723508103       -0.4089796508
 C          3.7791129539        1.2736938436        0.0965360117
 C          2.8523927812        0.0438091426        0.0872534169
 C          1.6193896051        0.3084152297        0.9673683981
 O          0.8037100775        1.3474352502        0.4793634995
 C          2.4232833763       -0.2863743809       -1.3616157715
 O          1.7680212550       -1.5214470859       -1.4993987022
 C          3.6416012651       -1.1456423763        0.6770684926
 O          2.8729972065       -2.2988617785        0.8508650739
 H          2.9977953034        2.4151091104       -1.4152947082
 H          3.6752019827        3.2928214714       -0.2117677815
 H          4.0690526503        1.4758931579        1.1319524020
 H          4.6960089673        1.0301626757       -0.4636129986
 H          1.9597628772        0.5402072649        1.9874018064
 H          0.9965409623       -0.5883968744        1.0079665120
 H          1.3996913188        2.0877533856        0.2544728973
 H          3.3198437079       -0.3527718368       -1.9883398343
 H          1.7879837559        0.5225558693       -1.7430763273
 H          0.8589897598       -1.4394155476       -1.1485613816
 H          4.0236451841       -0.8792308440        1.6677049210
 H          4.5036145975       -1.3505558706        0.0218107731
 H          2.4461602434       -2.4726173983       -0.0078013469

