$molecule
0 1
--
0 1
C       -1.427924   -0.517124    1.671097
C       -2.223449    0.467430    0.812712
O       -1.358931    1.380642    0.180510
C       -3.205688   -0.188652   -0.202916
C       -2.445887   -0.960118   -1.291294
C       -4.165439   -1.140650    0.524518
C       -4.019130    0.934860   -0.861954
H       -2.080512   -1.156646    2.287591
H       -0.771322    0.051778    2.351114
H       -0.790776   -1.171660    1.049719
H       -2.843274    1.079586    1.493906
H       -0.653577    0.885590   -0.281135
H       -3.156661   -1.417188   -2.003001
H       -1.827852   -1.772697   -0.871087
H       -1.781534   -0.293661   -1.866989
H       -4.969912   -1.470891   -0.156861
H       -4.643687   -0.643661    1.388922
H       -3.653368   -2.046823    0.892093
H       -4.636967    1.465545   -0.114673
H       -4.696915    0.529706   -1.635046
H       -3.349011    1.673314   -1.330706
--
0 1
C        2.023593    1.934599    0.352608
C        1.852039    0.431485    0.165381
O        0.911635    0.180312   -0.877518
C        3.148191   -0.395165   -0.044835
C        3.851563   -0.010122   -1.354619
C        4.103377   -0.165144    1.134928
C        2.762506   -1.881334   -0.095423
H        2.477737    2.408214   -0.537041
H        2.656521    2.168943    1.223078
H        1.030358    2.383285    0.519426
H        1.358610    0.030696    1.066337
H        1.198783    0.640927   -1.679044
H        4.150918    1.052704   -1.368552
H        3.212473   -0.205328   -2.234746
H        4.768442   -0.610829   -1.486649
H        4.954510   -0.866515    1.080036
H        3.593256   -0.333659    2.100946
H        4.518114    0.857418    1.141135
H        3.654060   -2.511517   -0.262457
H        2.041345   -2.074789   -0.905899
H        2.296100   -2.199866    0.854436
$end

$rem
   JOBTYPE           eda       
   EDA2              2         
   METHOD            wB97x-D   
   BASIS             def2-SV(P)
   SCF_CONVERGENCE   8         
   THRESH            14        
   SYMMETRY          false     
   DISP_FREE_X       wB97X-D   
   DISP_FREE_C       none      
   EDA_BSSE          true      
$end