%nprocshared=4
%mem=8000mb
%chk=30.chk
%mem=8000mb
#T wB97XD/def2svpp opt=tight freq int(grid=ultrafine) scf=(verytight,qc)

comment

1 2
O       -1.812508   -0.994590    1.091119
C       -0.499286   -1.301166    0.696772
C        0.118596   -0.304470   -0.296344
C        1.489500   -0.802856   -0.781775
O        2.432995   -0.884781    0.245083
C       -0.806132   -0.023605   -1.500013
O       -2.022240    0.548321   -1.155294
N        0.343112    1.021272    0.409433
O       -0.337493    1.276907    1.380136
O        1.186718    1.760197   -0.045661
H       -1.757173   -0.190567    1.634456
H       -0.546936   -2.276810    0.186824
H        0.177088   -1.412480    1.563654
H        1.838113   -0.164735   -1.613329
H        1.352081   -1.822361   -1.178468
H        2.789493    0.001130    0.405416
H       -0.921493   -0.991707   -2.034562
H       -0.297300    0.675178   -2.184660
H       -2.431512   -0.022403   -0.480266


