#T wB97XD/def2svpp opt=tight freq int(grid=ultrafine) scf=(verytight,qc)

Comment gs min

0 1
C          0.92101       -0.04309       -0.00794
C          2.46263       -0.05724        0.01246
C          2.96862        0.59865        1.31818
O          2.52835        1.94329        1.46099
C          2.97968       -1.50987       -0.02167
O          2.57870       -2.18527       -1.20744
C          3.00616        0.70205       -1.21859
O          2.60924        2.07363       -1.20662
H          0.51456       -0.61742        0.83172
H          0.52916       -0.48070       -0.93144
H          0.51770        0.97388        0.06507
H          4.06262        0.59697        1.35945
H          2.60682        0.04453        2.19180
H          2.74537        2.39897        0.61964
H          2.62145       -2.08504        0.84021
H          4.07497       -1.52839        0.00759
H          1.65679       -2.47310       -1.08931
H          2.66710        0.25704       -2.16096
H          4.10173        0.68527       -1.22229
H          1.69671        2.11036       -1.54598
