#T wB97XD/def2svpp opt=tight freq int(grid=ultrafine) scf=(verytight,qc)

Comment gs min

0 1
O          2.87968        1.09391        0.55551
C          2.39784       -0.04856       -0.15206
C          2.94268       -1.34938        0.47458
C          2.49507       -1.47711        1.94812
O          1.07566       -1.49362        2.06317
C          2.39727       -2.54975       -0.33097
O          2.62581       -2.41767       -1.73276
C          4.48953       -1.35602        0.43890
O          5.06309       -0.31926        1.22803
H          2.46927        1.87102        0.13348
H          2.72332        0.05657       -1.19351
H          1.30399       -0.02181       -0.13435
H          2.87948       -0.65998        2.57116
H          2.86609       -2.40764        2.37552
H          0.78610       -0.56982        2.17152
H          1.31331       -2.64488       -0.20504
H          2.84505       -3.49179        0.00594
H          3.57129       -2.26685       -1.89376
H          4.87053       -1.23739       -0.57951
H          4.87897       -2.30566        0.82421
H          4.53400        0.49061        1.06139
