$molecule
0 1
--
0 1
Cl       -2.323579   -1.293914   -1.217272 
C       -2.340684    0.000820    0.000703 
Cl       -1.772415   -0.641440    1.555606 
Cl       -1.277245    1.322584   -0.522934 
Cl       -3.998990    0.613524    0.184347 
--
0 1
Cl        3.999216   -0.612788    0.184709 
C        2.340679   -0.000821    0.000704 
Cl        1.772411    0.642741    1.555078 
Cl        2.322985    1.292743   -1.218513 
Cl        1.277619   -1.323450   -0.521518 
$end

$rem
   JOBTYPE           eda                 
   EDA2              2                   
   METHOD            wB97X-D             
   BASIS             def2-SV(P)          
   SCF_CONVERGENCE   8                   
   THRESH            14                  
   SYMMETRY          false               
   DISP_FREE_X       wB97X-D             
   DISP_FREE_C       none                
   EDA_BSSE          true                
$end
