%chk=monomer.chk
%nprocshared=4
%mem=8000mb
#T wB97XD/def2svpp opt=tight freq int(grid=ultrafine) scf=(verytight,qc) Volume=tight

Monomer

0 1
 C         -0.9154139267        1.8754994146       -0.5458070064
 C         -1.1736768322        0.4741999587        0.0064085372
 C         -1.1215209109        0.4966870125        1.5361695050
 C         -2.5685067609        0.0024032619       -0.4689430307
 O         -2.9095179154       -1.2901601829       -0.0404531243
 C         -0.1636423751       -0.5230820184       -0.5557839366
 Br         1.6693851181       -0.1616546902       -0.0011252551
 H          0.0779367247        2.2177054899       -0.2637566278
 H         -1.6433915272        2.5791963350       -0.1489817120
 H         -0.9884398116        1.8827178079       -1.6316888673
 H         -1.1882026861       -0.5096089150        1.9479538061
 H         -1.9388387569        1.0955122037        1.9340057541
 H         -0.1857530615        0.9345325878        1.8759339777
 H         -2.5904163936       -0.0388296903       -1.5612660858
 H         -3.3200926743        0.7332594598       -0.1400252625
 H         -3.0161473904       -1.2818820122        0.9174069255
 H         -0.1562040607       -0.4976280735       -1.6450463016
 H         -0.3907693411       -1.5344901683       -0.2200284224



