%nprocshared=4
%mem=8000mb
%chk=40.chk
%mem=8000mb
#T wB97XD/def2svpp opt=tight freq int(grid=ultrafine) scf=(verytight,qc)

comment

1 2
O       -1.716794   -1.376558   -1.044853
C       -0.317711   -1.264975   -1.126305
C        0.147503   -0.406316    0.049901
Br       -0.355895    1.448732   -0.222374
C       -0.375287   -0.910358    1.411489
O       -1.735392   -0.727267    1.582598
N        1.675279   -0.432289    0.078855
O        2.237148   -0.840326   -0.911645
O        2.214739   -0.042325    1.083030
H       -2.057325   -1.810973   -1.836640
H        0.009639   -0.809094   -2.075067
H        0.169441   -2.254795   -1.033000
H        0.145450   -0.359519    2.207014
H       -0.069948   -1.978876    1.482255
H       -2.192529   -1.084641    0.802992


