%nprocshared=8
%mem=20GB
# opt=(calcall,tight,modredundant) wb97xd scf=(qc,verytight) def2svpp int=grid=ultrafine

dimer

0 1
 Br                 2.06653167   -1.84102585    0.12767169
 C                  2.65526267   -0.00032785   -0.00279631
 Br                 4.46572767    0.04926515   -0.69475131
 Br                 1.48273467    0.97756015   -1.19222531
 Br                 2.62158067    0.81507215    1.75724769
 Br                -4.35446400   -0.37347400    0.59004100
 C                 -2.54473500   -0.00188700    0.00187500
 Br                -1.95582300   -1.40671500   -1.19445000
 Br                -2.51308400    1.69807600   -0.93235800
 Br                -1.37104300    0.08176000    1.53856800

B 2 7 F


