%nprocshared=4
%mem=8000mb
%chk=20.chk
%nprocshared=4
%mem=8000mb
#T wB97XD/def2svpp opt=tight freq int(grid=ultrafine) scf=(verytight,qc) Volume=tight

Monomer

0 1
 C         -0.5901939819       -0.8998215819        1.6867628533
 C         -0.1742420397       -0.0148711614        0.5086809394
 C          0.2212229112       -0.8721684213       -0.6981963594
 Cl         1.5808606652       -1.9572164245       -0.3246091377
 C         -1.3323105148        0.9058325010        0.1017420846
 Cl        -2.7659937853       -0.0089561566       -0.4209284364
 C          1.0056074244        0.8540933151        0.9586913503
 Cl         1.5438236955        1.9852873093       -0.3093905319
 H         -1.4517234437       -1.5020415119        1.4114360466
 H         -0.8544744660       -0.2896407290        2.5468563742
 H          0.2226363914       -1.5640975714        1.9658919970
 H          0.5398491977       -0.2428971807       -1.5295242918
 H         -0.6112530041       -1.5031105688       -1.0067096543
 H         -1.0470887358        1.5467796504       -0.7321062463
 H         -1.6431765475        1.5192874574        0.9475573658
 H          1.8616513951        0.2251170782        1.2013594358
 H          0.7332632254        1.4592252756        1.8229413614



