%chk=7.chk
%mem=8000mb
#T wB97XD/def2svpp opt=tight freq int(grid=ultrafine) scf=(verytight,qc)

comment

1 2
C        0.762735    0.000001   -0.000001
C       -0.762735   -0.000001    0.000001
H        1.164817   -0.830246   -0.606194
H        1.164797   -0.109881    1.022108
H        1.164833    0.940109   -0.415887
H       -1.164833   -0.940109    0.415886
H       -1.164797    0.109882   -1.022108
H       -1.164817    0.830245    0.606194


