#T wB97XD/def2svpp opt=tight freq int(grid=ultrafine) scf=(verytight,qc)

Comment gs min

0 1
C          1.03311       -0.05156        0.03058
C          2.56703       -0.05361        0.03371
C          3.09795       -0.73946       -1.22901
C          3.09791        1.37905        0.14521
N          3.08323       -0.83752        1.24236
O          2.25677       -1.34172        2.01644
O          4.31337       -0.92244        1.37573
H          0.64541        0.50604       -0.82901
H          0.62784        0.41713        0.93536
H          0.62781       -1.06880       -0.02865
H          2.75334       -0.21615       -2.12888
H          2.75630       -1.77875       -1.29458
H          4.19379       -0.75009       -1.25903
H          2.75331        1.98742       -0.69946
H          4.19376        1.41083        0.14267
H          2.75629        1.86254        1.06754
