$molecule
0 1
--
0 1
Br       -1.957070    1.815789    0.331265 
C       -2.544883    0.000631   -0.002609 
Br       -4.354543    0.027265   -0.697898 
Br       -1.370493   -0.839226   -1.291520 
Br       -2.512629   -1.004439    1.656431 
--
0 1
Br        4.355942    0.304790    0.624141 
C        2.544782    0.001658    0.002086 
Br        1.955979    1.529145   -1.033176 
Br        2.509434   -1.586422   -1.111673 
Br        1.373398   -0.247295    1.522519 
$end

$rem
   JOBTYPE           eda                 
   EDA2              2                   
   METHOD            wB97X-D             
   BASIS             def2-SV(P)          
   SCF_CONVERGENCE   8                   
   THRESH            14                  
   SYMMETRY          false               
   DISP_FREE_X       wB97X-D             
   DISP_FREE_C       none                
   EDA_BSSE          true                
$end
