%nprocshared=4
%mem=8000mb
%chk=19.chk
%nprocshared=4
%mem=8000mb
#T wB97XD/def2svpp opt=tight freq int(grid=ultrafine) scf=(verytight,qc) Volume=tight

Monomer

0 1
O        2.158748    0.130236    0.932013
C        0.827791    0.007470    1.287093
C       -0.125378    0.012775    0.077636
Cl       -1.798625   -0.148337    0.665527
Cl        0.049358    1.510482   -0.858892
Cl        0.274263   -1.390650   -0.972043
H        2.414086   -0.635203    0.395399
H        0.567708    0.873784    1.914846
H        0.608802   -0.917347    1.857218


