%nprocshared=4
%mem=8000mb
#T wB97XD/def2svpp opt=tight freq int(grid=ultrafine) scf=(verytight,qc)

dimer

0 1
 O         -1.8109675326        1.6529725438       -0.3823029396
 C         -2.4837260263        1.3782423362        0.8219050015
 C         -2.9231572457       -0.0927289157        0.9724436519
 C         -3.7965975061       -0.5129296570       -0.2224029688
 O         -3.1009542746       -0.4682672174       -1.4475153616
 C         -1.7349423910       -1.0518992657        1.1376598957
 O         -0.9036898409       -1.1230661848        0.0058071847
 H         -0.8850648295        1.3570862180       -0.2958022838
 H         -3.3791559632        2.0096251645        0.8186949920
 H         -1.8682804516        1.6603796665        1.6845589464
 H         -3.5311692928       -0.1617230630        1.8796310812
 H         -4.6823490416        0.1367641688       -0.2661364132
 H         -4.1356185587       -1.5460797144       -0.0984842444
 H         -2.7092795392        0.4257988315       -1.4993627794
 H         -2.1260208093       -2.0535958587        1.3749459124
 H         -1.1022679404       -0.7261860573        1.9690346745
 H         -1.4890308141       -1.1660944003       -0.7732256656
 O          1.8098944305       -1.6532295160        0.3808717920
 C          2.4870585464       -1.3786875886       -0.8209087657
 C          2.9261889593        0.0924727836       -0.9705019347
 C          1.7380702139        1.0509690027       -1.1404432218
 O          0.9036106062        1.1236311367       -0.0111140821
 C          3.7951381304        0.5135575617        0.2273358848
 O          3.0951646503        0.4688499102        1.4499589603
 H          0.8843703872       -1.3568481822        0.2912824294
 H          1.8751400099       -1.6617147465       -1.6858283662
 H          3.3828662098       -2.0095707795       -0.8138455435
 H          3.5374787740        0.1613887339       -1.8754758660
 H          1.1078703446        0.7237050460       -1.9731086967
 H          2.1294827455        2.0524326214       -1.3782194274
 H          1.4867168100        1.1666198909        0.7695682230
 H          4.1340371445        1.5468381808        0.1043035892
 H          4.6810708663       -0.1356092247        0.2744442195
 H          2.7036763026       -0.4253935648        1.5005677206

