$molecule
0 1
--
0 1
F       -2.035741    1.197945   -0.545782 
C       -2.020951    0.001577    0.000738 
F       -1.576894    0.086135    1.235910 
F       -3.239310   -0.495425    0.005700 
F       -1.230513   -0.789946   -0.696613 
--
0 1
F        2.030335   -0.650427   -1.143875 
C        2.020568   -0.001561   -0.000180 
F        1.576833   -0.793005    0.951952 
F        3.241656    0.393617    0.291067 
F        1.233890    1.051096   -0.098731 
$end

$rem
   JOBTYPE           eda                 
   EDA2              2                   
   METHOD            wB97X-D             
   BASIS             def2-SV(P)          
   SCF_CONVERGENCE   8                   
   THRESH            14                  
   SYMMETRY          false               
   DISP_FREE_X       wB97X-D             
   DISP_FREE_C       none                
   EDA_BSSE          true                
$end
