%nprocshared=4
%mem=8000mb
%chk=12.chk
%mem=8000mb
#T wB97XD/def2svpp opt=tight freq int(grid=ultrafine) scf=(verytight,qc)

comment

1 2
C       -0.610715    1.679973   -0.448888
C       -0.003205    0.351241    0.010333
C       -0.005493    0.281527    1.543141
C       -0.814319   -0.823088   -0.570144
O       -2.146873   -0.872595   -0.121065
C        1.439192    0.255939   -0.518714
O        2.129604   -0.903072   -0.122077
H       -1.680274    1.721045   -0.184095
H       -0.531256    1.794989   -1.545235
H       -0.101035    2.540338    0.021308
H       -1.019694    0.448476    1.945651
H        0.646309    1.061465    1.978324
H        0.343259   -0.702498    1.908618
H       -0.278588   -1.769258   -0.359667
H       -0.867302   -0.715239   -1.667455
H       -2.161514   -1.216891    0.780684
H        1.992550    1.172701   -0.223024
H        1.422020    0.233237   -1.622239
H        2.340924   -0.836580    0.817903


