$molecule
0 1
--
0 1
O       -2.642658   -2.289323    0.976499
C       -1.862529   -1.150054    1.060789
C       -2.404918   -0.037775    0.152608
N       -3.909414    0.082614    0.333851
O       -4.596527   -0.070549   -0.639056
O       -4.252436    0.312742    1.461027
N       -1.797837    1.313969    0.465947
O       -0.633385    1.285933    0.779113
O       -2.505145    2.275791    0.356555
N       -2.129815   -0.316199   -1.316793
O       -1.902097    0.624579   -2.022714
O       -2.178401   -1.479146   -1.638267
H       -2.532782   -2.673639    0.092442
H       -0.800516   -1.302709    0.802702
H       -1.915594   -0.775100    2.093537
--
0 1
O        4.546746   -1.302604    0.728172
C        4.227236   -0.280374   -0.143485
C        2.728812    0.060023   -0.084409
N        2.303470    0.178239    1.368681
O        2.878153    1.021746    1.994442
O        1.484366   -0.612518    1.761521
N        2.441743    1.338319   -0.849853
O        2.782511    1.271921   -2.006989
O        1.944397    2.261126   -0.276270
N        1.862779   -1.010021   -0.722871
O        2.346079   -2.112248   -0.800220
O        0.763961   -0.676600   -1.075175
H        4.193270   -2.134836    0.377624
H        4.476133   -0.483572   -1.200262
H        4.766885    0.623689    0.179103
$end

$rem
   JOBTYPE           eda                 
   EDA2              2                   
   METHOD            wB97X-D             
   BASIS             def2-SV(P)          
   SCF_CONVERGENCE   8                   
   THRESH            14                  
   SYMMETRY          false               
   DISP_FREE_X       wB97X-D             
   DISP_FREE_C       none                
   EDA_BSSE          true                
$end
