%nprocshared=4
%mem=8000mb
%chk=dimer.chk
%nprocshared=4
%mem=8000mb
#T wB97XD/def2svpp opt=tight freq int(grid=ultrafine) scf=(verytight,qc) Volume=tight

Dimer

0 1
 C          3.9411011543        0.6857511866        1.2593719718
 C          3.4445221946       -0.0330124091        0.0005470762
 C          3.9420607859        0.6824045941       -1.2598605310
 N          3.9533174061       -1.3915551557        0.0024515554
 C          1.9105187917        0.0028632814       -0.0003983607
 O          1.3968025017        1.2020766368       -0.0011318120
 O          1.2472693017       -1.0219413461       -0.0009311845
 H          3.5660427847        0.1902760894        2.1527240360
 H          3.6045443070        1.7182466858        1.2606688886
 H          5.0266294236        0.6559570236        1.2765044142
 H          5.0276195162        0.6534517088       -1.2755899040
 H          3.6046120289        1.7146050514       -1.2646703369
 H          3.5685089568        0.1838192380       -2.1521050470
 H          3.6175178750       -1.8940761318       -0.8124531448
 H          3.6201209219       -1.8908970989        0.8203605146
 H          0.3883109436        1.1910865161       -0.0018721888
 C         -3.9397436261       -0.6822162421        1.2619425661
 C         -3.4445316410        0.0330149360        0.0004861885
 C         -3.9435958643       -0.6858094464       -1.2573110391
 N         -3.9530784203        1.3916345022       -0.0004653424
 C         -1.9105245049       -0.0029373291       -0.0011876926
 O         -1.3968539535       -1.2021626587       -0.0014586724
 O         -1.2472714671        1.0218810806       -0.0017593926
 H         -3.6035967889       -1.7148350112        1.2656212468
 H         -5.0252139121       -0.6519198298        1.2804179147
 H         -3.5633646281       -0.1844204420        2.1534173730
 H         -5.0291567896       -0.6558115407       -1.2724096072
 H         -3.6071965538       -1.7183667154       -1.2591533414
 H         -3.5700879859       -0.1904231596       -2.1513682835
 H         -3.6213656335        1.8909627640       -0.8190033911
 H         -3.6157428007        1.8941122730        0.8138509568
 H         -0.3883552151       -1.1912459150       -0.0014944347


